     Program PWSCF v.6.1 (svn rev. 13369) starts on 20Dec2017 at 17: 3:46

     Current dimensions of program PWSCF are:
     Max number of different atomic species (ntypx) = 10
     Max number of k-points (npk) =  40000
     Max angular momentum in pseudopotentials (lmaxx) =  3

     Subspace diagonalization in iterative solution of the eigenvalue problem:
     a serial algorithm will be used

     bravais-lattice index     =            3
     lattice parameter (alat)  =       6.6860  a.u.
     unit-cell volume          =     149.4425 (a.u.)^3
     number of atoms/cell      =            1
     number of atomic types    =            1
     number of electrons       =         9.00
     number of Kohn-Sham states=            9
     kinetic-energy cutoff     =      40.0000  Ry
     charge density cutoff     =     320.0000  Ry
     convergence threshold     =      1.0E-08
     mixing beta               =       0.7000
     number of iterations used =            8  plain     mixing
     Exchange-correlation      = SLA  PW   PBE  PBE ( 1  4  3  4 0 0)
     nstep                     =           50

     celldm(1)=   6.686026  celldm(2)=   0.000000  celldm(3)=   0.000000
     celldm(4)=   0.000000  celldm(5)=   0.000000  celldm(6)=   0.000000

     crystal axes: (cart. coord. in units of alat)
               a(1) = (   0.500000   0.500000   0.500000 )
               a(2) = (  -0.500000   0.500000   0.500000 )
               a(3) = (  -0.500000  -0.500000   0.500000 )

     reciprocal axes: (cart. coord. in units 2 pi/alat)
               b(1) = (  1.000000  0.000000  1.000000 )
               b(2) = ( -1.000000  1.000000  0.000000 )
               b(3) = (  0.000000 -1.000000  1.000000 )

     PseudoPot. # 1 for Na read from file:
     /home/s1333534/quantum_espresso/qe-6.1/pseudo/Na_pbe_v1.uspp.F.UPF
     MD5 check sum: 76a99c7e9422403d3e93cbc85ab7bccb
     Pseudo is Ultrasoft, Zval =  9.0
     Generated by new atomic code, or converted to UPF format
     Using radial grid of  819 points,  5 beta functions with:
                l(1) =   0
                l(2) =   0
                l(3) =   1
                l(4) =   1
                l(5) =   2
     Q(r) pseudized with  8 coefficients,  rinner =    1.250   1.250   1.250
                                                       1.250   1.250

     atomic species   valence    mass     pseudopotential
        Na             9.00    22.99000     Na( 1.00)

     48 Sym. Ops., with inversion, found

   Cartesian axes

     site n.     atom                  positions (alat units)
         1           Na  tau(   1) = (   0.0000000   0.0000000   0.0000000  )

     number of k points=   250  Marzari-Vanderbilt smearing, width (Ry)=  0.0200

     Number of k-points >= 100: set verbosity='high' to print them.

     Initial potential from superposition of free atoms

     starting charge    8.99371, renormalised to    9.00000
     Starting wfc are    5 randomized atomic wfcs +    4 random wfc

     Self-consistent Calculation

     iteration #  1     ecut=    40.00 Ry     beta=0.70
     Davidson diagonalization with overlap
     ethr =  1.00E-02,  avg # of iterations =  5.5

     Threshold (ethr) on eigenvalues was too large:
     Diagonalizing with lowered threshold

     Davidson diagonalization with overlap
     ethr =  1.78E-05,  avg # of iterations =  3.1

     total energy              =     -95.08296830 Ry
     Harris-Foulkes estimate   =     -95.08355771 Ry
     estimated scf accuracy    <       0.00160410 Ry

[...]

     End of self-consistent calculation

     Number of k-points >= 100: set verbosity='high' to print the bands.

     the Fermi energy is     4.4771 ev

!    total energy              =     -95.08321142 Ry
     Harris-Foulkes estimate   =     -95.08321141 Ry
     estimated scf accuracy    <          2.0E-09 Ry

     The total energy is the sum of the following terms:

     one-electron contribution =     -76.02983095 Ry
     hartree contribution      =      39.38272856 Ry
     xc contribution           =     -14.34734625 Ry
     ewald contribution        =     -44.08865831 Ry
     smearing contrib. (-TS)   =      -0.00010447 Ry

     convergence has been achieved in   5 iterations

     Forces acting on atoms (cartesian axes, Ry/au):

     atom    1 type  1   force =     0.00000000    0.00000000    0.00000000

     Total force =     0.000000     Total SCF correction =     0.000000

     Computing stress (Cartesian axis) and pressure

          total   stress  (Ry/bohr**3)                   (kbar)     P=   98.92
   0.00067243   0.00000000  -0.00000000         98.92      0.00     -0.00
   0.00000000   0.00067243   0.00000000          0.00     98.92      0.00
  -0.00000000   0.00000000   0.00067243         -0.00      0.00     98.92

     BFGS Geometry Optimization

     number of scf cycles    =   1
     number of bfgs steps    =   0

     enthalpy new            =     -94.9816224457 Ry

     new trust radius        =       0.0004498391 bohr
     new conv_thr            =       0.0000000100 Ry

     new unit-cell volume =    149.36004 a.u.^3 (    22.13287 Ang^3 )
     density =      1.72485 g/cm^3

CELL_PARAMETERS (alat=  6.68602586)
   0.499908006   0.499908006   0.499908006
  -0.499908006   0.499908006   0.499908006
  -0.499908006  -0.499908006   0.499908006

ATOMIC_POSITIONS (crystal)
Na       0.000000000   0.000000000   0.000000000

     Writing output data file na.bcc.save
     NEW-OLD atomic charge density approx. for the potential
     extrapolated charge    8.99503, renormalised to    9.00000

[...]

     Threshold (ethr) on eigenvalues was too large:
     Diagonalizing with lowered threshold

     Davidson diagonalization with overlap
     ethr =  9.70E-08,  avg # of iterations =  1.0

[...]

     number of scf cycles    =   2
     number of bfgs steps    =   1

     enthalpy old            =     -94.9816224457 Ry
     enthalpy new            =     -94.9816229316 Ry

     CASE: enthalpy_new < enthalpy_old

     new trust radius        =       0.0006746965 bohr
     new conv_thr            =            1.0E-10 Ry

     new unit-cell volume =    149.23639 a.u.^3 (    22.11455 Ang^3 )
     density =      1.72627 g/cm^3

[...]

ATOMIC_POSITIONS (crystal)
Na       0.000000000   0.000000000   0.000000000

     Writing output data file na.bcc.save
     NEW-OLD atomic charge density approx. for the potential
     extrapolated charge    8.99255, renormalised to    9.00000

[...]

     bfgs converged in   3 scf cycles and   2 bfgs steps
     (criteria: energy <  1.0E-04 Ry, force <  1.0E-03Ry/Bohr, cell <  5.0E-01kbar)

     End of BFGS Geometry Optimization

     Final enthalpy =     -94.9816234158 Ry
Begin final coordinates
     new unit-cell volume =    149.23639 a.u.^3 (    22.11455 Ang^3 )
     density =      1.72627 g/cm^3

CELL_PARAMETERS (alat=  6.68602586)
   0.499770015   0.499770015   0.499770015
  -0.499770015   0.499770015   0.499770015
  -0.499770015  -0.499770015   0.499770015

ATOMIC_POSITIONS (crystal)
Na       0.000000000   0.000000000   0.000000000
End final coordinates

     A final scf calculation at the relaxed structure.
     The G-vectors are recalculated for the final unit cell
     Results may differ from those at the preceding step.

     bravais-lattice index     =            3
     lattice parameter (alat)  =       6.6860  a.u.
     unit-cell volume          =     149.2364 (a.u.)^3
     number of atoms/cell      =            1
     number of atomic types    =            1
     number of electrons       =         9.00
     number of Kohn-Sham states=            9
     kinetic-energy cutoff     =      40.0000  Ry
     charge density cutoff     =     320.0000  Ry
     convergence threshold     =      1.0E-10
     mixing beta               =       0.7000
     number of iterations used =            8  plain     mixing
     Exchange-correlation      = SLA  PW   PBE  PBE ( 1  4  3  4 0 0)

     celldm(1)=   6.686026  celldm(2)=   0.000000  celldm(3)=   0.000000
     celldm(4)=   0.000000  celldm(5)=   0.000000  celldm(6)=   0.000000

     crystal axes: (cart. coord. in units of alat)
               a(1) = (   0.499770   0.499770   0.499770 )
               a(2) = (  -0.499770   0.499770   0.499770 )
               a(3) = (  -0.499770  -0.499770   0.499770 )

     reciprocal axes: (cart. coord. in units 2 pi/alat)
               b(1) = (  1.000460  0.000000  1.000460 )
               b(2) = ( -1.000460  1.000460  0.000000 )
               b(3) = (  0.000000 -1.000460  1.000460 )

     PseudoPot. # 1 for Na read from file:
     /home/s1333534/quantum_espresso/qe-6.1/pseudo/Na_pbe_v1.uspp.F.UPF
     MD5 check sum: 76a99c7e9422403d3e93cbc85ab7bccb
     Pseudo is Ultrasoft, Zval =  9.0
     Generated by new atomic code, or converted to UPF format
     Using radial grid of  819 points,  5 beta functions with:
                l(1) =   0
                l(2) =   0
                l(3) =   1
                l(4) =   1
                l(5) =   2
     Q(r) pseudized with  8 coefficients,  rinner =    1.250   1.250   1.250
                                                       1.250   1.250

     atomic species   valence    mass     pseudopotential
        Na             9.00    22.99000     Na( 1.00)

     48 Sym. Ops., with inversion, found

   Cartesian axes

     site n.     atom                  positions (alat units)
         1           Na  tau(   1) = (   0.0000000   0.0000000   0.0000000  )

     number of k points=   250  Marzari-Vanderbilt smearing, width (Ry)=  0.0200

     Number of k-points >= 100: set verbosity='high' to print them.

     Initial potential from superposition of free atoms

     starting charge    8.99371, renormalised to    9.00000
     Starting wfc are    5 randomized atomic wfcs +    4 random wfc

     Writing output data file na.bcc.save

     Self-consistent Calculation

[...]

     total energy              =     -95.08306552 Ry
     Harris-Foulkes estimate   =     -95.08306552 Ry
     estimated scf accuracy    <          1.7E-10 Ry

     iteration #  7     ecut=    40.00 Ry     beta=0.70
     Davidson diagonalization with overlap
     ethr =  1.85E-12,  avg # of iterations =  2.0

     End of self-consistent calculation

     Number of k-points >= 100: set verbosity='high' to print the bands.

     the Fermi energy is     4.4871 ev

!    total energy              =     -95.08306552 Ry
     Harris-Foulkes estimate   =     -95.08306552 Ry
     estimated scf accuracy    <          2.9E-12 Ry

     The total energy is the sum of the following terms:

     one-electron contribution =     -75.99489751 Ry
     hartree contribution      =      39.36849590 Ry
     xc contribution           =     -14.34761233 Ry
     ewald contribution        =     -44.10894713 Ry
     smearing contrib. (-TS)   =      -0.00010445 Ry

     convergence has been achieved in   7 iterations

     Forces acting on atoms (cartesian axes, Ry/au):

     atom    1 type  1   force =     0.00000000    0.00000000    0.00000000

     Total force =     0.000000     Total SCF correction =     0.000000

     Computing stress (Cartesian axis) and pressure

          total   stress  (Ry/bohr**3)                   (kbar)     P=   99.54
   0.00067668   0.00000000  -0.00000000         99.54      0.00     -0.00
   0.00000000   0.00067668   0.00000000          0.00     99.54      0.00
  -0.00000000   0.00000000   0.00067668         -0.00      0.00     99.54

     Writing output data file na.bcc.save

     General routines

     Parallel routines

   This run was terminated on:  17: 4:19  20Dec2017

   JOB DONE.