     Program PWSCF v.6.1 (svn rev. 13369) starts on 20Dec2017 at 17: 2:21

     Current dimensions of program PWSCF are:
     Max number of different atomic species (ntypx) = 10
     Max number of k-points (npk) =  40000
     Max angular momentum in pseudopotentials (lmaxx) =  3

     Subspace diagonalization in iterative solution of the eigenvalue problem:
     a serial algorithm will be used

     bravais-lattice index     =            3
     lattice parameter (alat)  =       6.8149  a.u.
     unit-cell volume          =     158.2539 (a.u.)^3
     number of atoms/cell      =            1
     number of atomic types    =            1
     number of electrons       =         9.00
     number of Kohn-Sham states=            9
     kinetic-energy cutoff     =      40.0000  Ry
     charge density cutoff     =     320.0000  Ry
     convergence threshold     =      1.0E-08
     mixing beta               =       0.7000
     number of iterations used =            8  plain     mixing
     Exchange-correlation      = SLA  PW   PBE  PBE ( 1  4  3  4 0 0)
     nstep                     =           50

     celldm(1)=   6.814932  celldm(2)=   0.000000  celldm(3)=   0.000000
     celldm(4)=   0.000000  celldm(5)=   0.000000  celldm(6)=   0.000000

     crystal axes: (cart. coord. in units of alat)
               a(1) = (   0.500000   0.500000   0.500000 )
               a(2) = (  -0.500000   0.500000   0.500000 )
               a(3) = (  -0.500000  -0.500000   0.500000 )

     reciprocal axes: (cart. coord. in units 2 pi/alat)
               b(1) = (  1.000000  0.000000  1.000000 )
               b(2) = ( -1.000000  1.000000  0.000000 )
               b(3) = (  0.000000 -1.000000  1.000000 )

     PseudoPot. # 1 for Na read from file:
     /home/s1333534/quantum_espresso/qe-6.1/pseudo/Na_pbe_v1.uspp.F.UPF
     MD5 check sum: 76a99c7e9422403d3e93cbc85ab7bccb
     Pseudo is Ultrasoft, Zval =  9.0
     Generated by new atomic code, or converted to UPF format
     Using radial grid of  819 points,  5 beta functions with:
                l(1) =   0
                l(2) =   0
                l(3) =   1
                l(4) =   1
                l(5) =   2
     Q(r) pseudized with  8 coefficients,  rinner =    1.250   1.250   1.250
                                                       1.250   1.250

     atomic species   valence    mass     pseudopotential
        Na             9.00    22.99000     Na( 1.00)

     48 Sym. Ops., with inversion, found

   Cartesian axes

     site n.     atom                  positions (alat units)
         1           Na  tau(   1) = (   0.0000000   0.0000000   0.0000000  )

     number of k points=   250  Marzari-Vanderbilt smearing, width (Ry)=  0.0200

     Number of k-points >= 100: set verbosity='high' to print them.

     Initial potential from superposition of free atoms

     starting charge    8.99371, renormalised to    9.00000
     Starting wfc are    5 randomized atomic wfcs +    4 random wfc

     Self-consistent Calculation

     iteration #  1     ecut=    40.00 Ry     beta=0.70
     Davidson diagonalization with overlap
     ethr =  1.00E-02,  avg # of iterations =  5.5

     Threshold (ethr) on eigenvalues was too large:
     Diagonalizing with lowered threshold

     Davidson diagonalization with overlap
     ethr =  1.61E-05,  avg # of iterations =  3.4

     total energy              =     -95.08853208 Ry
     Harris-Foulkes estimate   =     -95.08904922 Ry
     estimated scf accuracy    <       0.00145038 Ry

[...]

     End of self-consistent calculation

     Number of k-points >= 100: set verbosity='high' to print the bands.

     the Fermi energy is     4.0720 ev

!    total energy              =     -95.08875052 Ry
     Harris-Foulkes estimate   =     -95.08875052 Ry
     estimated scf accuracy    <          1.8E-09 Ry

     The total energy is the sum of the following terms:

     one-electron contribution =     -77.46963727 Ry
     hartree contribution      =      39.97281884 Ry
     xc contribution           =     -14.33711350 Ry
     ewald contribution        =     -43.25471325 Ry
     smearing contrib. (-TS)   =      -0.00010534 Ry

     convergence has been achieved in   5 iterations

     Forces acting on atoms (cartesian axes, Ry/au):

     atom    1 type  1   force =     0.00000000    0.00000000    0.00000000

     Total force =     0.000000     Total SCF correction =     0.000000

     Computing stress (Cartesian axis) and pressure

          total   stress  (Ry/bohr**3)                   (kbar)     P=   78.21
   0.00053167   0.00000000  -0.00000000         78.21      0.00     -0.00
   0.00000000   0.00053167   0.00000000          0.00     78.21      0.00
  -0.00000000   0.00000000   0.00053167         -0.00      0.00     78.21

     BFGS Geometry Optimization

     number of scf cycles    =   1
     number of bfgs steps    =   0

     enthalpy new            =     -95.0026874418 Ry

     new trust radius        =       0.0007648741 bohr
     new conv_thr            =       0.0000000100 Ry

     new unit-cell volume =    158.10964 a.u.^3 (    23.42943 Ang^3 )
     density =      1.62939 g/cm^3

CELL_PARAMETERS (alat=  6.81493154)
   0.499847997   0.499847997   0.499847997
  -0.499847997   0.499847997   0.499847997
  -0.499847997  -0.499847997   0.499847997

ATOMIC_POSITIONS (crystal)
Na       0.000000000   0.000000000   0.000000000

     Writing output data file na.bcc.save
     NEW-OLD atomic charge density approx. for the potential
     extrapolated charge    8.99179, renormalised to    9.00000

[...]

     enthalpy old            =     -95.0026874418 Ry
     enthalpy new            =     -95.0026889625 Ry

     CASE: enthalpy_new < enthalpy_old

     WARNING: bfgs curvature condition failed, Theta= 0.963
     new trust radius        =       0.0011471367 bohr
     new conv_thr            =            1.0E-10 Ry

[...]

     number of scf cycles    =   3
     number of bfgs steps    =   2

     enthalpy old            =     -95.0026889625 Ry
     enthalpy new            =     -95.0026906395 Ry

     CASE: enthalpy_new < enthalpy_old

     new trust radius        =       0.0017203125 bohr
     new conv_thr            =            1.0E-10 Ry

     new unit-cell volume =    157.56935 a.u.^3 (    23.34937 Ang^3 )
     density =      1.63498 g/cm^3

[...]

ATOMIC_POSITIONS (crystal)
Na       0.000000000   0.000000000   0.000000000

     Writing output data file na.bcc.save
     NEW-OLD atomic charge density approx. for the potential
     extrapolated charge    8.98151, renormalised to    9.00000

[...]

     bfgs converged in   4 scf cycles and   3 bfgs steps
     (criteria: energy <  1.0E-04 Ry, force <  1.0E-03Ry/Bohr, cell <  5.0E-01kbar)

     End of BFGS Geometry Optimization

     Final enthalpy =     -95.0026917928 Ry
Begin final coordinates
     new unit-cell volume =    157.56935 a.u.^3 (    23.34937 Ang^3 )
     density =      1.63498 g/cm^3

CELL_PARAMETERS (alat=  6.81493154)
   0.499277985   0.499277985   0.499277985
  -0.499277985   0.499277985   0.499277985
  -0.499277985  -0.499277985   0.499277985

ATOMIC_POSITIONS (crystal)
Na       0.000000000   0.000000000   0.000000000
End final coordinates

     A final scf calculation at the relaxed structure.
     The G-vectors are recalculated for the final unit cell
     Results may differ from those at the preceding step.

     bravais-lattice index     =            3
     lattice parameter (alat)  =       6.8149  a.u.
     unit-cell volume          =     157.5693 (a.u.)^3
     number of atoms/cell      =            1
     number of atomic types    =            1
     number of electrons       =         9.00
     number of Kohn-Sham states=            9
     kinetic-energy cutoff     =      40.0000  Ry
     charge density cutoff     =     320.0000  Ry
     convergence threshold     =      1.0E-10
     mixing beta               =       0.7000
     number of iterations used =            8  plain     mixing
     Exchange-correlation      = SLA  PW   PBE  PBE ( 1  4  3  4 0 0)

     celldm(1)=   6.814932  celldm(2)=   0.000000  celldm(3)=   0.000000
     celldm(4)=   0.000000  celldm(5)=   0.000000  celldm(6)=   0.000000

     crystal axes: (cart. coord. in units of alat)
               a(1) = (   0.499278   0.499278   0.499278 )
               a(2) = (  -0.499278   0.499278   0.499278 )
               a(3) = (  -0.499278  -0.499278   0.499278 )

     reciprocal axes: (cart. coord. in units 2 pi/alat)
               b(1) = (  1.001446 -0.000000  1.001446 )
               b(2) = ( -1.001446  1.001446 -0.000000 )
               b(3) = (  0.000000 -1.001446  1.001446 )

     PseudoPot. # 1 for Na read from file:
     /home/s1333534/quantum_espresso/qe-6.1/pseudo/Na_pbe_v1.uspp.F.UPF
     MD5 check sum: 76a99c7e9422403d3e93cbc85ab7bccb
     Pseudo is Ultrasoft, Zval =  9.0
     Generated by new atomic code, or converted to UPF format
     Using radial grid of  819 points,  5 beta functions with:
                l(1) =   0
                l(2) =   0
                l(3) =   1
                l(4) =   1
                l(5) =   2
     Q(r) pseudized with  8 coefficients,  rinner =    1.250   1.250   1.250
                                                       1.250   1.250

     atomic species   valence    mass     pseudopotential
        Na             9.00    22.99000     Na( 1.00)

     48 Sym. Ops., with inversion, found

   Cartesian axes

     site n.     atom                  positions (alat units)
         1           Na  tau(   1) = (   0.0000000   0.0000000   0.0000000  )

     number of k points=   250  Marzari-Vanderbilt smearing, width (Ry)=  0.0200

     Number of k-points >= 100: set verbosity='high' to print them.

     Initial potential from superposition of free atoms

     starting charge    8.99371, renormalised to    9.00000
     Starting wfc are    5 randomized atomic wfcs +    4 random wfc

     Writing output data file na.bcc.save

     Self-consistent Calculation

[...]

     total energy              =     -95.08836243 Ry
     Harris-Foulkes estimate   =     -95.08836243 Ry
     estimated scf accuracy    <          1.3E-10 Ry

     iteration #  7     ecut=    40.00 Ry     beta=0.70
     Davidson diagonalization with overlap
     ethr =  1.40E-12,  avg # of iterations =  2.0

     End of self-consistent calculation

     Number of k-points >= 100: set verbosity='high' to print the bands.

     the Fermi energy is     4.1018 ev

!    total energy              =     -95.08836243 Ry
     Harris-Foulkes estimate   =     -95.08836243 Ry
     estimated scf accuracy    <          3.0E-12 Ry

     The total energy is the sum of the following terms:

     one-electron contribution =     -77.36157913 Ry
     hartree contribution      =      39.92847233 Ry
     xc contribution           =     -14.33788564 Ry
     ewald contribution        =     -43.31726469 Ry
     smearing contrib. (-TS)   =      -0.00010529 Ry

     convergence has been achieved in   7 iterations

     Forces acting on atoms (cartesian axes, Ry/au):

     atom    1 type  1   force =     0.00000000    0.00000000    0.00000000

     Total force =     0.000000     Total SCF correction =     0.000000

     Computing stress (Cartesian axis) and pressure

          total   stress  (Ry/bohr**3)                   (kbar)     P=   79.71
   0.00054189   0.00000000  -0.00000000         79.71      0.00     -0.00
  -0.00000000   0.00054189  -0.00000000         -0.00     79.71     -0.00
  -0.00000000   0.00000000   0.00054189         -0.00      0.00     79.71

     Writing output data file na.bcc.save

     General routines

     Parallel routines

   This run was terminated on:  17: 3: 4  20Dec2017

   JOB DONE.