     Program PWSCF v.6.1 (svn rev. 13369) starts on  4Mar2018 at  9: 1: 8

     Current dimensions of program PWSCF are:
     Max number of different atomic species (ntypx) = 10
     Max number of k-points (npk) =  80000
     Max angular momentum in pseudopotentials (lmaxx) =  3

     Subspace diagonalization in iterative solution of the eigenvalue problem:
     a serial algorithm will be used

     bravais-lattice index     =           -5
     lattice parameter (alat)  =      17.0000  a.u.
     unit-cell volume          =     662.3628 (a.u.)^3
     number of atoms/cell      =            3
     number of atomic types    =            1
     number of electrons       =        27.00
     number of Kohn-Sham states=           18
     kinetic-energy cutoff     =      40.0000  Ry
     charge density cutoff     =     320.0000  Ry
     convergence threshold     =      1.0E-10
     mixing beta               =       0.7000
     number of iterations used =            8  plain     mixing
     Exchange-correlation      = SLA  PW   PBE  PBE ( 1  4  3  4 0 0)
     nstep                     =           50

     celldm(1)=  17.000000  celldm(2)=   0.000000  celldm(3)=   0.000000
     celldm(4)=   0.920000  celldm(5)=   0.000000  celldm(6)=   0.000000

     crystal axes: (cart. coord. in units of alat)
               a(1) = (   0.373182   0.656024   0.656024 )
               a(2) = (   0.656024   0.373182   0.656024 )
               a(3) = (   0.656024   0.656024   0.373182 )

     reciprocal axes: (cart. coord. in units 2 pi/alat)
               b(1) = ( -2.159226  1.376308  1.376308 )
               b(2) = (  1.376308 -2.159226  1.376308 )
               b(3) = (  1.376308  1.376308 -2.159226 )

     PseudoPot. # 1 for Na read from file:
     /home/s1333534/quantum_espresso/qe-6.1/pseudo/Na_pbe_v1.uspp.F.UPF
     MD5 check sum: 76a99c7e9422403d3e93cbc85ab7bccb
     Pseudo is Ultrasoft, Zval =  9.0
     Generated by new atomic code, or converted to UPF format
     Using radial grid of  819 points,  5 beta functions with:
                l(1) =   0
                l(2) =   0
                l(3) =   1
                l(4) =   1
                l(5) =   2
     Q(r) pseudized with  8 coefficients,  rinner =    1.250   1.250   1.250
                                                       1.250   1.250

     atomic species   valence    mass     pseudopotential
        Na             9.00    22.99000     Na( 1.00)

     12 Sym. Ops., with inversion, found

   Cartesian axes

     site n.     atom                  positions (alat units)
         1           Na  tau(   1) = (   1.2171236   1.2171236   1.2171236  )
         2           Na  tau(   2) = (   0.4681063   0.4681063   0.4681063  )
         3           Na  tau(   3) = (   0.8426150   0.8426150   0.8426150  )

     number of k points=   770  Marzari-Vanderbilt smearing, width (Ry)=  0.0200

     Number of k-points >= 100: set verbosity='high' to print them.

     Initial potential from superposition of free atoms

     starting charge   26.98113, renormalised to   27.00000
     Starting wfc are   15 randomized atomic wfcs +    3 random wfc

     Self-consistent Calculation

     iteration #  1     ecut=    40.00 Ry     beta=0.70
     Davidson diagonalization with overlap
     ethr =  1.00E-02,  avg # of iterations =  5.5

     Threshold (ethr) on eigenvalues was too large:
     Diagonalizing with lowered threshold

     Davidson diagonalization with overlap
     ethr =  9.94E-06,  avg # of iterations =  7.4

     total energy              =    -285.31611804 Ry
     Harris-Foulkes estimate   =    -285.31691275 Ry
     estimated scf accuracy    <       0.00278138 Ry

[...]

     End of self-consistent calculation

     Number of k-points >= 100: set verbosity='high' to print the bands.

     the Fermi energy is     2.1616 ev

!    total energy              =    -285.31645438 Ry
     Harris-Foulkes estimate   =    -285.31645438 Ry
     estimated scf accuracy    <          6.2E-13 Ry

     The total energy is the sum of the following terms:

     one-electron contribution =    -256.14327683 Ry
     hartree contribution      =     129.80226548 Ry
     xc contribution           =     -42.85565928 Ry
     ewald contribution        =    -116.11964061 Ry
     smearing contrib. (-TS)   =      -0.00014315 Ry

     convergence has been achieved in   8 iterations

     Forces acting on atoms (cartesian axes, Ry/au):

     atom    1 type  1   force =    -0.00000461   -0.00000461   -0.00000461
     atom    2 type  1   force =     0.00000461    0.00000461    0.00000461
     atom    3 type  1   force =    -0.00000000   -0.00000000    0.00000000

     Total force =     0.000011     Total SCF correction =     0.000000

     Computing stress (Cartesian axis) and pressure

          total   stress  (Ry/bohr**3)                   (kbar)     P=    9.02
   0.00006132   0.00000277   0.00000277          9.02      0.41      0.41
   0.00000277   0.00006132   0.00000277          0.41      9.02      0.41
   0.00000277   0.00000277   0.00006132          0.41      0.41      9.02

     BFGS Geometry Optimization

     number of scf cycles    =   1
     number of bfgs steps    =   0

     enthalpy new            =    -285.3097004049 Ry

     new trust radius        =       0.0065984359 bohr
     new conv_thr            =            1.0E-10 Ry

     new unit-cell volume =    664.90589 a.u.^3 (    98.52889 Ang^3 )
     density =      1.16237 g/cm^3

CELL_PARAMETERS (alat= 17.00000000)
   0.373749299   0.656933964   0.656933964
   0.656933964   0.373749299   0.656933964
   0.656933964   0.656933964   0.373749299

ATOMIC_POSITIONS (crystal)
Na       0.722229839   0.722229839   0.722229839
Na       0.277770161   0.277770161   0.277770161
Na       0.500000000   0.500000000   0.500000000

     Writing output data file na.9r.save
     NEW-OLD atomic charge density approx. for the potential
     extrapolated charge   27.10320, renormalised to   27.00000

[...]

     enthalpy old            =    -285.3097004049 Ry
     enthalpy new            =    -285.3098267099 Ry

     CASE: enthalpy_new < enthalpy_old

     WARNING: bfgs curvature condition failed, Theta= 0.856
     new trust radius        =       0.0072628058 bohr
     new conv_thr            =            1.0E-12 Ry

[...]

     WARNING: bfgs curvature condition failed, Theta= 0.987
     new trust radius        =       0.0004767079 bohr
     new conv_thr            =            1.0E-12 Ry

[...]

     Total force =     0.000003     Total SCF correction =     0.000000

[...]

     number of scf cycles    =  13
     number of bfgs steps    =  12

     enthalpy old            =    -285.3107426782 Ry
     enthalpy new            =    -285.3107432117 Ry

     CASE: enthalpy_new < enthalpy_old

     new trust radius        =       0.0024118862 bohr
     new conv_thr            =            1.0E-12 Ry

     new unit-cell volume =    705.15000 a.u.^3 (   104.49245 Ang^3 )
     density =      1.09603 g/cm^3

[...]

ATOMIC_POSITIONS (crystal)
Na       0.722224406   0.722224406   0.722224406
Na       0.277775594   0.277775594   0.277775594
Na       0.500000000   0.500000000   0.500000000

     Writing output data file na.9r.save
     NEW-OLD atomic charge density approx. for the potential
     extrapolated charge   26.99604, renormalised to   27.00000

[...]

     Threshold (ethr) on eigenvalues was too large:
     Diagonalizing with lowered threshold

     Davidson diagonalization with overlap
     ethr =  6.94E-09,  avg # of iterations =  2.0

[...]

     Total force =     0.000001     Total SCF correction =     0.000000
     SCF correction compared to forces is large: reduce conv_thr to get better values

[...]

     bfgs converged in  14 scf cycles and  13 bfgs steps
     (criteria: energy <  1.0E-04 Ry, force <  1.0E-03Ry/Bohr, cell <  5.0E-02kbar)

     End of BFGS Geometry Optimization

     Final enthalpy =    -285.3107436623 Ry
Begin final coordinates
     new unit-cell volume =    705.15000 a.u.^3 (   104.49245 Ang^3 )
     density =      1.09603 g/cm^3

CELL_PARAMETERS (alat= 17.00000000)
   0.383909599   0.672101264   0.672101264
   0.672101264   0.383909599   0.672101264
   0.672101264   0.672101264   0.383909599

ATOMIC_POSITIONS (crystal)
Na       0.722224406   0.722224406   0.722224406
Na       0.277775594   0.277775594   0.277775594
Na       0.500000000   0.500000000   0.500000000
End final coordinates

     A final scf calculation at the relaxed structure.
     The G-vectors are recalculated for the final unit cell
     Results may differ from those at the preceding step.

     bravais-lattice index     =           -5
     lattice parameter (alat)  =      17.0000  a.u.
     unit-cell volume          =     705.1500 (a.u.)^3
     number of atoms/cell      =            3
     number of atomic types    =            1
     number of electrons       =        27.00
     number of Kohn-Sham states=           18
     kinetic-energy cutoff     =      40.0000  Ry
     charge density cutoff     =     320.0000  Ry
     convergence threshold     =      1.0E-12
     mixing beta               =       0.7000
     number of iterations used =            8  plain     mixing
     Exchange-correlation      = SLA  PW   PBE  PBE ( 1  4  3  4 0 0)

     celldm(1)=  17.000000  celldm(2)=   0.000000  celldm(3)=   0.000000
     celldm(4)=   0.920000  celldm(5)=   0.000000  celldm(6)=   0.000000

     crystal axes: (cart. coord. in units of alat)
               a(1) = (   0.383910   0.672101   0.672101 )
               a(2) = (   0.672101   0.383910   0.672101 )
               a(3) = (   0.672101   0.672101   0.383910 )

     reciprocal axes: (cart. coord. in units 2 pi/alat)
               b(1) = ( -2.120387  1.349526  1.349526 )
               b(2) = (  1.349526 -2.120387  1.349526 )
               b(3) = (  1.349526  1.349526 -2.120387 )

     PseudoPot. # 1 for Na read from file:
     /home/s1333534/quantum_espresso/qe-6.1/pseudo/Na_pbe_v1.uspp.F.UPF
     MD5 check sum: 76a99c7e9422403d3e93cbc85ab7bccb
     Pseudo is Ultrasoft, Zval =  9.0
     Generated by new atomic code, or converted to UPF format
     Using radial grid of  819 points,  5 beta functions with:
                l(1) =   0
                l(2) =   0
                l(3) =   1
                l(4) =   1
                l(5) =   2
     Q(r) pseudized with  8 coefficients,  rinner =    1.250   1.250   1.250
                                                       1.250   1.250

     atomic species   valence    mass     pseudopotential
        Na             9.00    22.99000     Na( 1.00)

     12 Sym. Ops., with inversion, found

   Cartesian axes

     site n.     atom                  positions (alat units)
         1           Na  tau(   1) = (   1.2480848   1.2480848   1.2480848  )
         2           Na  tau(   2) = (   0.4800274   0.4800274   0.4800274  )
         3           Na  tau(   3) = (   0.8640561   0.8640561   0.8640561  )

     number of k points=   770  Marzari-Vanderbilt smearing, width (Ry)=  0.0200

     Number of k-points >= 100: set verbosity='high' to print them.

     Initial potential from superposition of free atoms

     starting charge   26.98113, renormalised to   27.00000
     Starting wfc are   15 randomized atomic wfcs +    3 random wfc

     Writing output data file na.9r.save

     Self-consistent Calculation

     iteration #  1     ecut=    40.00 Ry     beta=0.70
     Davidson diagonalization with overlap
     c_bands:  1 eigenvalues not converged
     c_bands:  1 eigenvalues not converged
     c_bands:  1 eigenvalues not converged
     c_bands:  1 eigenvalues not converged
     ethr =  1.00E-06,  avg # of iterations = 13.8

[...]

     total energy              =    -285.31897763 Ry
     Harris-Foulkes estimate   =    -285.31897763 Ry
     estimated scf accuracy    <          3.8E-12 Ry

     iteration #  9     ecut=    40.00 Ry     beta=0.70
     Davidson diagonalization with overlap
     ethr =  1.00E-13,  avg # of iterations =  1.0

     End of self-consistent calculation

     Number of k-points >= 100: set verbosity='high' to print the bands.

     the Fermi energy is     1.8733 ev

!    total energy              =    -285.31897763 Ry
     Harris-Foulkes estimate   =    -285.31897763 Ry
     estimated scf accuracy    <          4.9E-14 Ry

     The total energy is the sum of the following terms:

     one-electron contribution =    -260.34034715 Ry
     hartree contribution      =     131.57436875 Ry
     xc contribution           =     -42.83005905 Ry
     ewald contribution        =    -113.72280858 Ry
     smearing contrib. (-TS)   =      -0.00013160 Ry

     convergence has been achieved in   9 iterations

     Forces acting on atoms (cartesian axes, Ry/au):

     atom    1 type  1   force =    -0.00000357   -0.00000357   -0.00000357
     atom    2 type  1   force =     0.00000357    0.00000357    0.00000357
     atom    3 type  1   force =     0.00000000    0.00000000   -0.00000000

     Total force =     0.000009     Total SCF correction =     0.000002
     SCF correction compared to forces is large: reduce conv_thr to get better values

     Computing stress (Cartesian axis) and pressure

          total   stress  (Ry/bohr**3)                   (kbar)     P=    2.45
   0.00001666   0.00000043   0.00000043          2.45      0.06      0.06
   0.00000043   0.00001666   0.00000043          0.06      2.45      0.06
   0.00000043   0.00000043   0.00001666          0.06      0.06      2.45

     Writing output data file na.9r.save

     General routines

     Parallel routines

   This run was terminated on:  11:16:44   4Mar2018

   JOB DONE.