     Program PWSCF v.6.1 (svn rev. 13369) starts on  7Mar2018 at 11:44:20

     Current dimensions of program PWSCF are:
     Max number of different atomic species (ntypx) = 10
     Max number of k-points (npk) =  80000
     Max angular momentum in pseudopotentials (lmaxx) =  3

     Subspace diagonalization in iterative solution of the eigenvalue problem:
     a serial algorithm will be used

     bravais-lattice index     =            0
     lattice parameter (alat)  =      17.0000  a.u.
     unit-cell volume          =     705.1500 (a.u.)^3
     number of atoms/cell      =            3
     number of atomic types    =            1
     number of electrons       =        27.00
     number of Kohn-Sham states=           18
     kinetic-energy cutoff     =      40.0000  Ry
     charge density cutoff     =     320.0000  Ry
     convergence threshold     =      1.0E-10
     mixing beta               =       0.7000
     number of iterations used =            8  plain     mixing
     Exchange-correlation      = SLA  PW   PBE  PBE ( 1  4  3  4 0 0)
     nstep                     =           50

     celldm(1)=  17.000000  celldm(2)=   0.000000  celldm(3)=   0.000000
     celldm(4)=   0.000000  celldm(5)=   0.000000  celldm(6)=   0.000000

     crystal axes: (cart. coord. in units of alat)
               a(1) = (   0.383910   0.672101   0.672101 )
               a(2) = (   0.672101   0.383910   0.672101 )
               a(3) = (   0.672101   0.672101   0.383910 )

     reciprocal axes: (cart. coord. in units 2 pi/alat)
               b(1) = ( -2.120387  1.349526  1.349526 )
               b(2) = (  1.349526 -2.120387  1.349526 )
               b(3) = (  1.349526  1.349526 -2.120387 )

     PseudoPot. # 1 for Na read from file:
     /home/s1333534/quantum_espresso/qe-6.1/pseudo/Na_pbe_v1.uspp.F.UPF
     MD5 check sum: 76a99c7e9422403d3e93cbc85ab7bccb
     Pseudo is Ultrasoft, Zval =  9.0
     Generated by new atomic code, or converted to UPF format
     Using radial grid of  819 points,  5 beta functions with:
                l(1) =   0
                l(2) =   0
                l(3) =   1
                l(4) =   1
                l(5) =   2
     Q(r) pseudized with  8 coefficients,  rinner =    1.250   1.250   1.250
                                                       1.250   1.250

     atomic species   valence    mass     pseudopotential
        Na             9.00    22.99000     Na( 1.00)

     12 Sym. Ops., with inversion, found

   Cartesian axes

     site n.     atom                  positions (alat units)
         1           Na  tau(   1) = (   1.2480830   1.2480830   1.2480830  )
         2           Na  tau(   2) = (   0.4800291   0.4800291   0.4800291  )
         3           Na  tau(   3) = (   0.8640561   0.8640561   0.8640561  )

     number of k points=   770  Marzari-Vanderbilt smearing, width (Ry)=  0.0200

     Number of k-points >= 100: set verbosity='high' to print them.

     Initial potential from superposition of free atoms

     starting charge   26.98113, renormalised to   27.00000
     Starting wfc are   15 randomized atomic wfcs +    3 random wfc

     Self-consistent Calculation

     iteration #  1     ecut=    40.00 Ry     beta=0.70
     Davidson diagonalization with overlap
     ethr =  1.00E-02,  avg # of iterations =  5.6

     Threshold (ethr) on eigenvalues was too large:
     Diagonalizing with lowered threshold

     Davidson diagonalization with overlap
     ethr =  9.42E-06,  avg # of iterations =  7.5

     total energy              =    -285.31866403 Ry
     Harris-Foulkes estimate   =    -285.31935857 Ry
     estimated scf accuracy    <       0.00266251 Ry

[...]

     End of self-consistent calculation

     Number of k-points >= 100: set verbosity='high' to print the bands.

     the Fermi energy is     1.8733 ev

!    total energy              =    -285.31897763 Ry
     Harris-Foulkes estimate   =    -285.31897763 Ry
     estimated scf accuracy    <          8.3E-11 Ry

     The total energy is the sum of the following terms:

     one-electron contribution =    -260.34029891 Ry
     hartree contribution      =     131.57430947 Ry
     xc contribution           =     -42.83004827 Ry
     ewald contribution        =    -113.72280832 Ry
     smearing contrib. (-TS)   =      -0.00013160 Ry

     convergence has been achieved in   7 iterations

     Forces acting on atoms (cartesian axes, Ry/au):

     atom    1 type  1   force =    -0.00000658   -0.00000658   -0.00000658
     atom    2 type  1   force =     0.00000658    0.00000658    0.00000658
     atom    3 type  1   force =     0.00000000   -0.00000000    0.00000000

     Total force =     0.000016     Total SCF correction =     0.000014
     SCF correction compared to forces is large: reduce conv_thr to get better values

     Computing stress (Cartesian axis) and pressure

          total   stress  (Ry/bohr**3)                   (kbar)     P=    2.42
   0.00001644   0.00000043   0.00000043          2.42      0.06      0.06
   0.00000043   0.00001644   0.00000043          0.06      2.42      0.06
   0.00000043   0.00000043   0.00001644          0.06      0.06      2.42

     BFGS Geometry Optimization

     number of scf cycles    =   1
     number of bfgs steps    =   0

     enthalpy new            =    -285.3117873574 Ry

     new trust radius        =       0.0008325467 bohr
     new conv_thr            =            1.0E-10 Ry

     new unit-cell volume =    705.48014 a.u.^3 (   104.54137 Ang^3 )
     density =      1.09552 g/cm^3

CELL_PARAMETERS (alat= 17.00000000)
   0.383983825   0.672217387   0.672217387
   0.672217387   0.383983825   0.672217387
   0.672217387   0.672217387   0.383983825

ATOMIC_POSITIONS (crystal)
Na       0.722223178   0.722223178   0.722223178
Na       0.277776822   0.277776822   0.277776822
Na       0.500000000   0.500000000   0.500000000

     Writing output data file na.9r.save
     NEW-OLD atomic charge density approx. for the potential
     extrapolated charge   27.01263, renormalised to   27.00000

[...]

     Total force =     0.000008     Total SCF correction =     0.000000

[...]

     enthalpy old            =    -285.3117873574 Ry
     enthalpy new            =    -285.3117894510 Ry

     CASE: enthalpy_new < enthalpy_old

     WARNING: bfgs curvature condition failed, Theta= 0.819
     new trust radius        =       0.0009158700 bohr
     new conv_thr            =            1.0E-12 Ry

[...]

     Threshold (ethr) on eigenvalues was too large:
     Diagonalizing with lowered threshold

     Davidson diagonalization with overlap
     ethr =  8.75E-08,  avg # of iterations =  1.0

[...]

     number of scf cycles    =   7
     number of bfgs steps    =   6

     enthalpy old            =    -285.3118029899 Ry
     enthalpy new            =    -285.3118067547 Ry

     CASE: enthalpy_new < enthalpy_old

     new trust radius        =       0.0025988830 bohr
     new conv_thr            =            1.0E-12 Ry

     new unit-cell volume =    711.30821 a.u.^3 (   105.40500 Ang^3 )
     density =      1.08655 g/cm^3

[...]

ATOMIC_POSITIONS (crystal)
Na       0.722219752   0.722219752   0.722219752
Na       0.277780248   0.277780248   0.277780248
Na       0.500000000   0.500000000   0.500000000

     Writing output data file na.9r.save
     NEW-OLD atomic charge density approx. for the potential
     extrapolated charge   27.03913, renormalised to   27.00000

[...]

     bfgs converged in   8 scf cycles and   7 bfgs steps
     (criteria: energy <  1.0E-04 Ry, force <  1.0E-03Ry/Bohr, cell <  5.0E-02kbar)

     End of BFGS Geometry Optimization

     Final enthalpy =    -285.3118073117 Ry
Begin final coordinates
     new unit-cell volume =    711.30821 a.u.^3 (   105.40500 Ang^3 )
     density =      1.08655 g/cm^3

CELL_PARAMETERS (alat= 17.00000000)
   0.385321133   0.674285613   0.674285613
   0.674285613   0.385321133   0.674285613
   0.674285613   0.674285613   0.385321133

ATOMIC_POSITIONS (crystal)
Na       0.722219752   0.722219752   0.722219752
Na       0.277780248   0.277780248   0.277780248
Na       0.500000000   0.500000000   0.500000000
End final coordinates

     A final scf calculation at the relaxed structure.
     The G-vectors are recalculated for the final unit cell
     Results may differ from those at the preceding step.

     bravais-lattice index     =            0
     lattice parameter (alat)  =      17.0000  a.u.
     unit-cell volume          =     711.3082 (a.u.)^3
     number of atoms/cell      =            3
     number of atomic types    =            1
     number of electrons       =        27.00
     number of Kohn-Sham states=           18
     kinetic-energy cutoff     =      40.0000  Ry
     charge density cutoff     =     320.0000  Ry
     convergence threshold     =      1.0E-12
     mixing beta               =       0.7000
     number of iterations used =            8  plain     mixing
     Exchange-correlation      = SLA  PW   PBE  PBE ( 1  4  3  4 0 0)

     celldm(1)=  17.000000  celldm(2)=   0.000000  celldm(3)=   0.000000
     celldm(4)=   0.000000  celldm(5)=   0.000000  celldm(6)=   0.000000

     crystal axes: (cart. coord. in units of alat)
               a(1) = (   0.385321   0.674286   0.674286 )
               a(2) = (   0.674286   0.385321   0.674286 )
               a(3) = (   0.674286   0.674286   0.385321 )

     reciprocal axes: (cart. coord. in units 2 pi/alat)
               b(1) = ( -2.114843  1.345790  1.345790 )
               b(2) = (  1.345790 -2.114843  1.345790 )
               b(3) = (  1.345790  1.345790 -2.114843 )

     PseudoPot. # 1 for Na read from file:
     /home/s1333534/quantum_espresso/qe-6.1/pseudo/Na_pbe_v1.uspp.F.UPF
     MD5 check sum: 76a99c7e9422403d3e93cbc85ab7bccb
     Pseudo is Ultrasoft, Zval =  9.0
     Generated by new atomic code, or converted to UPF format
     Using radial grid of  819 points,  5 beta functions with:
                l(1) =   0
                l(2) =   0
                l(3) =   1
                l(4) =   1
                l(5) =   2
     Q(r) pseudized with  8 coefficients,  rinner =    1.250   1.250   1.250
                                                       1.250   1.250

     atomic species   valence    mass     pseudopotential
        Na             9.00    22.99000     Na( 1.00)

     12 Sym. Ops., with inversion, found

   Cartesian axes

     site n.     atom                  positions (alat units)
         1           Na  tau(   1) = (   1.2522513   1.2522513   1.2522513  )
         2           Na  tau(   2) = (   0.4816410   0.4816410   0.4816410  )
         3           Na  tau(   3) = (   0.8669462   0.8669462   0.8669462  )

     number of k points=   770  Marzari-Vanderbilt smearing, width (Ry)=  0.0200

     Number of k-points >= 100: set verbosity='high' to print them.

     Initial potential from superposition of free atoms

     starting charge   26.98113, renormalised to   27.00000
     Starting wfc are   15 randomized atomic wfcs +    3 random wfc

     Writing output data file na.9r.save

     Self-consistent Calculation

     iteration #  1     ecut=    40.00 Ry     beta=0.70
     Davidson diagonalization with overlap
     c_bands:  1 eigenvalues not converged
     c_bands:  1 eigenvalues not converged
     c_bands:  1 eigenvalues not converged
     c_bands:  1 eigenvalues not converged
     c_bands:  1 eigenvalues not converged
     c_bands:  1 eigenvalues not converged
     ethr =  1.00E-06,  avg # of iterations = 13.9

[...]

     total energy              =    -285.31918843 Ry
     Harris-Foulkes estimate   =    -285.31918843 Ry
     estimated scf accuracy    <          2.8E-12 Ry

     iteration #  9     ecut=    40.00 Ry     beta=0.70
     Davidson diagonalization with overlap
     ethr =  1.00E-13,  avg # of iterations =  1.0

     End of self-consistent calculation

     Number of k-points >= 100: set verbosity='high' to print the bands.

     the Fermi energy is     1.8348 ev

!    total energy              =    -285.31918843 Ry
     Harris-Foulkes estimate   =    -285.31918843 Ry
     estimated scf accuracy    <          4.0E-13 Ry

     The total energy is the sum of the following terms:

     one-electron contribution =    -260.91733453 Ry
     hartree contribution      =     131.81855666 Ry
     xc contribution           =     -42.82658359 Ry
     ewald contribution        =    -113.39369630 Ry
     smearing contrib. (-TS)   =      -0.00013067 Ry

     convergence has been achieved in   9 iterations

     Forces acting on atoms (cartesian axes, Ry/au):

     atom    1 type  1   force =     0.00000229    0.00000229    0.00000229
     atom    2 type  1   force =    -0.00000229   -0.00000229   -0.00000229
     atom    3 type  1   force =     0.00000000   -0.00000000    0.00000000

     Total force =     0.000006     Total SCF correction =     0.000001

     Computing stress (Cartesian axis) and pressure

          total   stress  (Ry/bohr**3)                   (kbar)     P=    1.65
   0.00001120   0.00000021   0.00000021          1.65      0.03      0.03
   0.00000021   0.00001120   0.00000021          0.03      1.65      0.03
   0.00000021   0.00000021   0.00001120          0.03      0.03      1.65

     Writing output data file na.9r.save

     General routines

     Parallel routines

   This run was terminated on:  13: 1: 2   7Mar2018

   JOB DONE.