     Program PWSCF v.6.1 (svn rev. 13369) starts on 12Feb2018 at 13:40:21

     Current dimensions of program PWSCF are:
     Max number of different atomic species (ntypx) = 10
     Max number of k-points (npk) =  80000
     Max angular momentum in pseudopotentials (lmaxx) =  3

     Subspace diagonalization in iterative solution of the eigenvalue problem:
     a serial algorithm will be used

     bravais-lattice index     =           -5
     lattice parameter (alat)  =      17.0000  a.u.
     unit-cell volume          =     662.3628 (a.u.)^3
     number of atoms/cell      =            3
     number of atomic types    =            1
     number of electrons       =        27.00
     number of Kohn-Sham states=           18
     kinetic-energy cutoff     =      40.0000  Ry
     charge density cutoff     =     320.0000  Ry
     convergence threshold     =      1.0E-10
     mixing beta               =       0.7000
     number of iterations used =            8  plain     mixing
     Exchange-correlation      = SLA  PW   PBE  PBE ( 1  4  3  4 0 0)
     nstep                     =           50

     celldm(1)=  17.000000  celldm(2)=   0.000000  celldm(3)=   0.000000
     celldm(4)=   0.920000  celldm(5)=   0.000000  celldm(6)=   0.000000

     crystal axes: (cart. coord. in units of alat)
               a(1) = (   0.373182   0.656024   0.656024 )
               a(2) = (   0.656024   0.373182   0.656024 )
               a(3) = (   0.656024   0.656024   0.373182 )

     reciprocal axes: (cart. coord. in units 2 pi/alat)
               b(1) = ( -2.159226  1.376308  1.376308 )
               b(2) = (  1.376308 -2.159226  1.376308 )
               b(3) = (  1.376308  1.376308 -2.159226 )

     PseudoPot. # 1 for Na read from file:
     /home/s1333534/quantum_espresso/qe-6.1/pseudo/Na_pbe_v1.uspp.F.UPF
     MD5 check sum: 76a99c7e9422403d3e93cbc85ab7bccb
     Pseudo is Ultrasoft, Zval =  9.0
     Generated by new atomic code, or converted to UPF format
     Using radial grid of  819 points,  5 beta functions with:
                l(1) =   0
                l(2) =   0
                l(3) =   1
                l(4) =   1
                l(5) =   2
     Q(r) pseudized with  8 coefficients,  rinner =    1.250   1.250   1.250
                                                       1.250   1.250

     atomic species   valence    mass     pseudopotential
        Na             9.00    22.99000     Na( 1.00)

     12 Sym. Ops., with inversion, found

   Cartesian axes

     site n.     atom                  positions (alat units)
         1           Na  tau(   1) = (   1.2171236   1.2171236   1.2171236  )
         2           Na  tau(   2) = (   0.4681063   0.4681063   0.4681063  )
         3           Na  tau(   3) = (   0.8426150   0.8426150   0.8426150  )

     number of k points=   770  Marzari-Vanderbilt smearing, width (Ry)=  0.0200

     Number of k-points >= 100: set verbosity='high' to print them.

     Initial potential from superposition of free atoms

     starting charge   26.98113, renormalised to   27.00000
     Starting wfc are   15 randomized atomic wfcs +    3 random wfc

     Self-consistent Calculation

     iteration #  1     ecut=    40.00 Ry     beta=0.70
     Davidson diagonalization with overlap
     ethr =  1.00E-02,  avg # of iterations =  5.5

     Threshold (ethr) on eigenvalues was too large:
     Diagonalizing with lowered threshold

     Davidson diagonalization with overlap
     ethr =  9.94E-06,  avg # of iterations =  7.4

     total energy              =    -285.31611804 Ry
     Harris-Foulkes estimate   =    -285.31691275 Ry
     estimated scf accuracy    <       0.00278138 Ry

[...]

     End of self-consistent calculation

     Number of k-points >= 100: set verbosity='high' to print the bands.

     the Fermi energy is     2.1616 ev

!    total energy              =    -285.31645438 Ry
     Harris-Foulkes estimate   =    -285.31645438 Ry
     estimated scf accuracy    <          6.2E-13 Ry

     The total energy is the sum of the following terms:

     one-electron contribution =    -256.14327683 Ry
     hartree contribution      =     129.80226548 Ry
     xc contribution           =     -42.85565928 Ry
     ewald contribution        =    -116.11964061 Ry
     smearing contrib. (-TS)   =      -0.00014315 Ry

     convergence has been achieved in   8 iterations

     Forces acting on atoms (cartesian axes, Ry/au):

     atom    1 type  1   force =    -0.00000461   -0.00000461   -0.00000461
     atom    2 type  1   force =     0.00000461    0.00000461    0.00000461
     atom    3 type  1   force =    -0.00000000   -0.00000000    0.00000000

     Total force =     0.000011     Total SCF correction =     0.000000

     Computing stress (Cartesian axis) and pressure

          total   stress  (Ry/bohr**3)                   (kbar)     P=    9.02
   0.00006132   0.00000277   0.00000277          9.02      0.41      0.41
   0.00000277   0.00006132   0.00000277          0.41      9.02      0.41
   0.00000277   0.00000277   0.00006132          0.41      0.41      9.02

     BFGS Geometry Optimization

     number of scf cycles    =   1
     number of bfgs steps    =   0

     enthalpy new            =    -285.3299623363 Ry

     new trust radius        =       0.0105276716 bohr
     new conv_thr            =            1.0E-10 Ry

     new unit-cell volume =    666.43058 a.u.^3 (    98.75482 Ang^3 )
     density =      1.15971 g/cm^3

CELL_PARAMETERS (alat= 17.00000000)
   0.374034693   0.657435665   0.657435665
   0.657435665   0.374034693   0.657435665
   0.657435665   0.657435665   0.374034693

ATOMIC_POSITIONS (crystal)
Na       0.722229839   0.722229839   0.722229839
Na       0.277770161   0.277770161   0.277770161
Na       0.500000000   0.500000000   0.500000000

     Writing output data file na.9r.save
     NEW-OLD atomic charge density approx. for the potential
     extrapolated charge   27.16469, renormalised to   27.00000

[...]

     enthalpy old            =    -285.3299623363 Ry
     enthalpy new            =    -285.3302841046 Ry

     CASE: enthalpy_new < enthalpy_old

     WARNING: bfgs curvature condition failed, Theta= 0.856
     new trust radius        =       0.0115921519 bohr
     new conv_thr            =            1.0E-12 Ry

[...]

     Total force =     0.000008     Total SCF correction =     0.000001
     SCF correction compared to forces is large: reduce conv_thr to get better values

[...]

     WARNING: bfgs curvature condition failed, Theta= 0.932
     new trust radius        =       0.0003986795 bohr
     new conv_thr            =            1.0E-12 Ry

[...]

     number of scf cycles    =  14
     number of bfgs steps    =  13

     enthalpy old            =    -285.3328000437 Ry
     enthalpy new            =    -285.3328004355 Ry

     CASE: enthalpy_new < enthalpy_old

     new trust radius        =       0.0020173472 bohr
     new conv_thr            =            1.0E-12 Ry

     new unit-cell volume =    739.06118 a.u.^3 (   109.51757 Ang^3 )
     density =      1.04574 g/cm^3

[...]

ATOMIC_POSITIONS (crystal)
Na       0.722223001   0.722223001   0.722223001
Na       0.277776999   0.277776999   0.277776999
Na       0.500000000   0.500000000   0.500000000

     Writing output data file na.9r.save
     NEW-OLD atomic charge density approx. for the potential
     extrapolated charge   26.99775, renormalised to   27.00000

[...]

     Threshold (ethr) on eigenvalues was too large:
     Diagonalizing with lowered threshold

     Davidson diagonalization with overlap
     ethr =  2.30E-09,  avg # of iterations =  2.0

[...]

     Total force =     0.000001     Total SCF correction =     0.000000

[...]

     bfgs converged in  15 scf cycles and  14 bfgs steps
     (criteria: energy <  1.0E-04 Ry, force <  1.0E-03Ry/Bohr, cell <  5.0E-02kbar)

     End of BFGS Geometry Optimization

     Final enthalpy =    -285.3328008023 Ry
Begin final coordinates
     new unit-cell volume =    739.06118 a.u.^3 (   109.51757 Ang^3 )
     density =      1.04574 g/cm^3

CELL_PARAMETERS (alat= 17.00000000)
   0.389892330   0.682647790   0.682647790
   0.682647790   0.389892330   0.682647790
   0.682647790   0.682647790   0.389892330

ATOMIC_POSITIONS (crystal)
Na       0.722223001   0.722223001   0.722223001
Na       0.277776999   0.277776999   0.277776999
Na       0.500000000   0.500000000   0.500000000
End final coordinates

     A final scf calculation at the relaxed structure.
     The G-vectors are recalculated for the final unit cell
     Results may differ from those at the preceding step.

     bravais-lattice index     =           -5
     lattice parameter (alat)  =      17.0000  a.u.
     unit-cell volume          =     739.0612 (a.u.)^3
     number of atoms/cell      =            3
     number of atomic types    =            1
     number of electrons       =        27.00
     number of Kohn-Sham states=           18
     kinetic-energy cutoff     =      40.0000  Ry
     charge density cutoff     =     320.0000  Ry
     convergence threshold     =      1.0E-12
     mixing beta               =       0.7000
     number of iterations used =            8  plain     mixing
     Exchange-correlation      = SLA  PW   PBE  PBE ( 1  4  3  4 0 0)

     celldm(1)=  17.000000  celldm(2)=   0.000000  celldm(3)=   0.000000
     celldm(4)=   0.920000  celldm(5)=   0.000000  celldm(6)=   0.000000

     crystal axes: (cart. coord. in units of alat)
               a(1) = (   0.389892   0.682648   0.682648 )
               a(2) = (   0.682648   0.389892   0.682648 )
               a(3) = (   0.682648   0.682648   0.389892 )

     reciprocal axes: (cart. coord. in units 2 pi/alat)
               b(1) = ( -2.087300  1.328520  1.328520 )
               b(2) = (  1.328520 -2.087300  1.328520 )
               b(3) = (  1.328520  1.328520 -2.087300 )

     PseudoPot. # 1 for Na read from file:
     /home/s1333534/quantum_espresso/qe-6.1/pseudo/Na_pbe_v1.uspp.F.UPF
     MD5 check sum: 76a99c7e9422403d3e93cbc85ab7bccb
     Pseudo is Ultrasoft, Zval =  9.0
     Generated by new atomic code, or converted to UPF format
     Using radial grid of  819 points,  5 beta functions with:
                l(1) =   0
                l(2) =   0
                l(3) =   1
                l(4) =   1
                l(5) =   2
     Q(r) pseudized with  8 coefficients,  rinner =    1.250   1.250   1.250
                                                       1.250   1.250

     atomic species   valence    mass     pseudopotential
        Na             9.00    22.99000     Na( 1.00)

     12 Sym. Ops., with inversion, found

   Cartesian axes

     site n.     atom                  positions (alat units)
         1           Na  tau(   1) = (   1.2676371   1.2676371   1.2676371  )
         2           Na  tau(   2) = (   0.4875508   0.4875508   0.4875508  )
         3           Na  tau(   3) = (   0.8775940   0.8775940   0.8775940  )

     number of k points=   770  Marzari-Vanderbilt smearing, width (Ry)=  0.0200

     Number of k-points >= 100: set verbosity='high' to print them.

     Initial potential from superposition of free atoms

     starting charge   26.98113, renormalised to   27.00000
     Starting wfc are   15 randomized atomic wfcs +    3 random wfc

     Writing output data file na.9r.save

     Self-consistent Calculation

     iteration #  1     ecut=    40.00 Ry     beta=0.70
     Davidson diagonalization with overlap
     c_bands:  1 eigenvalues not converged
     c_bands:  1 eigenvalues not converged
     c_bands:  1 eigenvalues not converged
     c_bands:  1 eigenvalues not converged
     c_bands:  1 eigenvalues not converged
     c_bands:  1 eigenvalues not converged
     ethr =  1.00E-06,  avg # of iterations = 13.9

[...]

     total energy              =    -285.31972687 Ry
     Harris-Foulkes estimate   =    -285.31972687 Ry
     estimated scf accuracy    <          3.7E-12 Ry

     iteration #  9     ecut=    40.00 Ry     beta=0.70
     Davidson diagonalization with overlap
     ethr =  1.00E-13,  avg # of iterations =  1.0

     End of self-consistent calculation

     Number of k-points >= 100: set verbosity='high' to print the bands.

     the Fermi energy is     1.6695 ev

!    total energy              =    -285.31972687 Ry
     Harris-Foulkes estimate   =    -285.31972687 Ry
     estimated scf accuracy    <          3.0E-14 Ry

     The total energy is the sum of the following terms:

     one-electron contribution =    -263.43962158 Ry
     hartree contribution      =     132.88769337 Ry
     xc contribution           =     -42.81152556 Ry
     ewald contribution        =    -111.95613961 Ry
     smearing contrib. (-TS)   =      -0.00013350 Ry

     convergence has been achieved in   9 iterations

     Forces acting on atoms (cartesian axes, Ry/au):

     atom    1 type  1   force =    -0.00000088   -0.00000088   -0.00000088
     atom    2 type  1   force =     0.00000088    0.00000088    0.00000088
     atom    3 type  1   force =     0.00000000    0.00000000    0.00000000

     Total force =     0.000002     Total SCF correction =     0.000001
     SCF correction compared to forces is large: reduce conv_thr to get better values

     Computing stress (Cartesian axis) and pressure

          total   stress  (Ry/bohr**3)                   (kbar)     P=   -1.60
  -0.00001087   0.00000037   0.00000037         -1.60      0.05      0.05
   0.00000037  -0.00001087   0.00000037          0.05     -1.60      0.05
   0.00000037   0.00000037  -0.00001087          0.05      0.05     -1.60

     Writing output data file na.9r.save

     General routines

     Parallel routines

   This run was terminated on:  16: 3:59  12Feb2018

   JOB DONE.