     Program PWSCF v.6.1 (svn rev. 13369) starts on 14Feb2018 at  9:40:45

     Current dimensions of program PWSCF are:
     Max number of different atomic species (ntypx) = 10
     Max number of k-points (npk) =  80000
     Max angular momentum in pseudopotentials (lmaxx) =  3

     Subspace diagonalization in iterative solution of the eigenvalue problem:
     a serial algorithm will be used

     bravais-lattice index     =            0
     lattice parameter (alat)  =      17.0000  a.u.
     unit-cell volume          =     723.2052 (a.u.)^3
     number of atoms/cell      =            3
     number of atomic types    =            1
     number of electrons       =        27.00
     number of Kohn-Sham states=           18
     kinetic-energy cutoff     =      40.0000  Ry
     charge density cutoff     =     320.0000  Ry
     convergence threshold     =      1.0E-10
     mixing beta               =       0.7000
     number of iterations used =            8  plain     mixing
     Exchange-correlation      = SLA  PW   PBE  PBE ( 1  4  3  4 0 0)
     nstep                     =           50

     celldm(1)=  17.000000  celldm(2)=   0.000000  celldm(3)=   0.000000
     celldm(4)=   0.000000  celldm(5)=   0.000000  celldm(6)=   0.000000

     crystal axes: (cart. coord. in units of alat)
               a(1) = (   0.387549   0.678096   0.678096 )
               a(2) = (   0.678096   0.387549   0.678096 )
               a(3) = (   0.678096   0.678096   0.387549 )

     reciprocal axes: (cart. coord. in units 2 pi/alat)
               b(1) = ( -2.103364  1.338421  1.338421 )
               b(2) = (  1.338421 -2.103364  1.338421 )
               b(3) = (  1.338421  1.338421 -2.103364 )

     PseudoPot. # 1 for Na read from file:
     /home/s1333534/quantum_espresso/qe-6.1/pseudo/Na_pbe_v1.uspp.F.UPF
     MD5 check sum: 76a99c7e9422403d3e93cbc85ab7bccb
     Pseudo is Ultrasoft, Zval =  9.0
     Generated by new atomic code, or converted to UPF format
     Using radial grid of  819 points,  5 beta functions with:
                l(1) =   0
                l(2) =   0
                l(3) =   1
                l(4) =   1
                l(5) =   2
     Q(r) pseudized with  8 coefficients,  rinner =    1.250   1.250   1.250
                                                       1.250   1.250

     atomic species   valence    mass     pseudopotential
        Na             9.00    22.99000     Na( 1.00)

     12 Sym. Ops., with inversion, found

   Cartesian axes

     site n.     atom                  positions (alat units)
         1           Na  tau(   1) = (   1.2593688   1.2593688   1.2593688  )
         2           Na  tau(   2) = (   0.4843735   0.4843735   0.4843735  )
         3           Na  tau(   3) = (   0.8718711   0.8718711   0.8718711  )

     number of k points=   770  Marzari-Vanderbilt smearing, width (Ry)=  0.0200

     Number of k-points >= 100: set verbosity='high' to print them.

     Initial potential from superposition of free atoms

     starting charge   26.98113, renormalised to   27.00000
     Starting wfc are   15 randomized atomic wfcs +    3 random wfc

     Self-consistent Calculation

     iteration #  1     ecut=    40.00 Ry     beta=0.70
     Davidson diagonalization with overlap
     ethr =  1.00E-02,  avg # of iterations =  5.7

     Threshold (ethr) on eigenvalues was too large:
     Diagonalizing with lowered threshold

     Davidson diagonalization with overlap
     ethr =  9.28E-06,  avg # of iterations =  7.6

     total energy              =    -285.31918933 Ry
     Harris-Foulkes estimate   =    -285.31983556 Ry
     estimated scf accuracy    <       0.00262835 Ry

[...]

     End of self-consistent calculation

     Number of k-points >= 100: set verbosity='high' to print the bands.

     the Fermi energy is     1.7623 ev

!    total energy              =    -285.31949700 Ry
     Harris-Foulkes estimate   =    -285.31949700 Ry
     estimated scf accuracy    <          3.1E-11 Ry

     The total energy is the sum of the following terms:

     one-electron contribution =    -262.01392484 Ry
     hartree contribution      =     132.28304321 Ry
     xc contribution           =     -42.82001072 Ry
     ewald contribution        =    -112.76847376 Ry
     smearing contrib. (-TS)   =      -0.00013089 Ry

     convergence has been achieved in   7 iterations

     Forces acting on atoms (cartesian axes, Ry/au):

     atom    1 type  1   force =    -0.00000268   -0.00000268   -0.00000268
     atom    2 type  1   force =     0.00000268    0.00000268    0.00000268
     atom    3 type  1   force =     0.00000000   -0.00000000    0.00000000

     Total force =     0.000007     Total SCF correction =     0.000017
     SCF correction compared to forces is large: reduce conv_thr to get better values

     Computing stress (Cartesian axis) and pressure

          total   stress  (Ry/bohr**3)                   (kbar)     P=    0.18
   0.00000121   0.00000011   0.00000011          0.18      0.02      0.02
   0.00000011   0.00000121   0.00000011          0.02      0.18      0.02
   0.00000011   0.00000011   0.00000121          0.02      0.02      0.18

     BFGS Geometry Optimization

     number of scf cycles    =   1
     number of bfgs steps    =   0

     enthalpy new            =    -285.3194970009 Ry

     new trust radius        =       0.0001642622 bohr
     new conv_thr            =            1.0E-10 Ry

     new unit-cell volume =    723.27090 a.u.^3 (   107.17769 Ang^3 )
     density =      1.06857 g/cm^3

CELL_PARAMETERS (alat= 17.00000000)
   0.387564971   0.678119863   0.678119863
   0.678119863   0.387564971   0.678119863
   0.678119863   0.678119863   0.387564971

ATOMIC_POSITIONS (crystal)
Na       0.722221752   0.722221752   0.722221752
Na       0.277778248   0.277778248   0.277778248
Na       0.500000000   0.500000000   0.500000000

     Writing output data file na.9r.save
     NEW-OLD atomic charge density approx. for the potential
     extrapolated charge   27.00245, renormalised to   27.00000

[...]

     Total force =     0.000003     Total SCF correction =     0.000000

[...]

     enthalpy old            =    -285.3194970009 Ry
     enthalpy new            =    -285.3194970829 Ry

     CASE: enthalpy_new < enthalpy_old

     WARNING: bfgs curvature condition failed, Theta= 0.971
     new trust radius        =       0.0001806910 bohr
     new conv_thr            =            1.0E-12 Ry

[...]

     WARNING: bfgs curvature condition failed, Theta= 0.526
     uphill step: resetting bfgs history

[...]

     WARNING: bfgs curvature condition failed, Theta= 0.844
     new trust radius        =       0.0001671065 bohr
     new conv_thr            =            1.0E-12 Ry

[...]

     number of scf cycles    =   8
     number of bfgs steps    =   7

     enthalpy old            =    -285.3194975314 Ry
     enthalpy new            =    -285.3194976819 Ry

     CASE: enthalpy_new < enthalpy_old

     new trust radius        =       0.0008460740 bohr
     new conv_thr            =            1.0E-12 Ry

     new unit-cell volume =    724.28403 a.u.^3 (   107.32782 Ang^3 )
     density =      1.06708 g/cm^3

[...]

ATOMIC_POSITIONS (crystal)
Na       0.722222522   0.722222522   0.722222522
Na       0.277777478   0.277777478   0.277777478
Na       0.500000000   0.500000000   0.500000000

     Writing output data file na.9r.save
     NEW-OLD atomic charge density approx. for the potential
     extrapolated charge   27.01258, renormalised to   27.00000

[...]

     Threshold (ethr) on eigenvalues was too large:
     Diagonalizing with lowered threshold

     Davidson diagonalization with overlap
     ethr =  7.19E-08,  avg # of iterations =  1.0

[...]

     Total force =     0.000002     Total SCF correction =     0.000000

[...]

     bfgs converged in   9 scf cycles and   8 bfgs steps
     (criteria: energy <  1.0E-04 Ry, force <  1.0E-03Ry/Bohr, cell <  5.0E-02kbar)

     End of BFGS Geometry Optimization

     Final enthalpy =    -285.3194978152 Ry
Begin final coordinates
     new unit-cell volume =    724.28403 a.u.^3 (   107.32782 Ang^3 )
     density =      1.06708 g/cm^3

CELL_PARAMETERS (alat= 17.00000000)
   0.387810316   0.678487001   0.678487001
   0.678487001   0.387810316   0.678487001
   0.678487001   0.678487001   0.387810316

ATOMIC_POSITIONS (crystal)
Na       0.722222522   0.722222522   0.722222522
Na       0.277777478   0.277777478   0.277777478
Na       0.500000000   0.500000000   0.500000000
End final coordinates

     A final scf calculation at the relaxed structure.
     The G-vectors are recalculated for the final unit cell
     Results may differ from those at the preceding step.

     bravais-lattice index     =            0
     lattice parameter (alat)  =      17.0000  a.u.
     unit-cell volume          =     724.2840 (a.u.)^3
     number of atoms/cell      =            3
     number of atomic types    =            1
     number of electrons       =        27.00
     number of Kohn-Sham states=           18
     kinetic-energy cutoff     =      40.0000  Ry
     charge density cutoff     =     320.0000  Ry
     convergence threshold     =      1.0E-12
     mixing beta               =       0.7000
     number of iterations used =            8  plain     mixing
     Exchange-correlation      = SLA  PW   PBE  PBE ( 1  4  3  4 0 0)

     celldm(1)=  17.000000  celldm(2)=   0.000000  celldm(3)=   0.000000
     celldm(4)=   0.000000  celldm(5)=   0.000000  celldm(6)=   0.000000

     crystal axes: (cart. coord. in units of alat)
               a(1) = (   0.387810   0.678487   0.678487 )
               a(2) = (   0.678487   0.387810   0.678487 )
               a(3) = (   0.678487   0.678487   0.387810 )

     reciprocal axes: (cart. coord. in units 2 pi/alat)
               b(1) = ( -2.102453  1.337795  1.337795 )
               b(2) = (  1.337795 -2.102453  1.337795 )
               b(3) = (  1.337795  1.337795 -2.102453 )

     PseudoPot. # 1 for Na read from file:
     /home/s1333534/quantum_espresso/qe-6.1/pseudo/Na_pbe_v1.uspp.F.UPF
     MD5 check sum: 76a99c7e9422403d3e93cbc85ab7bccb
     Pseudo is Ultrasoft, Zval =  9.0
     Generated by new atomic code, or converted to UPF format
     Using radial grid of  819 points,  5 beta functions with:
                l(1) =   0
                l(2) =   0
                l(3) =   1
                l(4) =   1
                l(5) =   2
     Q(r) pseudized with  8 coefficients,  rinner =    1.250   1.250   1.250
                                                       1.250   1.250

     atomic species   valence    mass     pseudopotential
        Na             9.00    22.99000     Na( 1.00)

     12 Sym. Ops., with inversion, found

   Cartesian axes

     site n.     atom                  positions (alat units)
         1           Na  tau(   1) = (   1.2601225   1.2601225   1.2601225  )
         2           Na  tau(   2) = (   0.4846618   0.4846618   0.4846618  )
         3           Na  tau(   3) = (   0.8723922   0.8723922   0.8723922  )

     number of k points=   770  Marzari-Vanderbilt smearing, width (Ry)=  0.0200

     Number of k-points >= 100: set verbosity='high' to print them.

     Initial potential from superposition of free atoms

     starting charge   26.98113, renormalised to   27.00000
     Starting wfc are   15 randomized atomic wfcs +    3 random wfc

     Writing output data file na.9r.save

     Self-consistent Calculation

     iteration #  1     ecut=    40.00 Ry     beta=0.70
     Davidson diagonalization with overlap
     c_bands:  1 eigenvalues not converged
     c_bands:  1 eigenvalues not converged
     c_bands:  1 eigenvalues not converged
     c_bands:  1 eigenvalues not converged
     c_bands:  1 eigenvalues not converged
     c_bands:  1 eigenvalues not converged
     ethr =  1.00E-06,  avg # of iterations = 13.9

[...]

     total energy              =    -285.31951889 Ry
     Harris-Foulkes estimate   =    -285.31951889 Ry
     estimated scf accuracy    <          2.4E-12 Ry

     iteration #  9     ecut=    40.00 Ry     beta=0.70
     Davidson diagonalization with overlap
     ethr =  1.00E-13,  avg # of iterations =  1.0

     End of self-consistent calculation

     Number of k-points >= 100: set verbosity='high' to print the bands.

     the Fermi energy is     1.7558 ev

!    total energy              =    -285.31951889 Ry
     Harris-Foulkes estimate   =    -285.31951889 Ry
     estimated scf accuracy    <          1.2E-13 Ry

     The total energy is the sum of the following terms:

     one-electron contribution =    -262.11220998 Ry
     hartree contribution      =     132.32470557 Ry
     xc contribution           =     -42.81942560 Ry
     ewald contribution        =    -112.71245819 Ry
     smearing contrib. (-TS)   =      -0.00013069 Ry

     convergence has been achieved in   9 iterations

     Forces acting on atoms (cartesian axes, Ry/au):

     atom    1 type  1   force =     0.00000160    0.00000160    0.00000160
     atom    2 type  1   force =    -0.00000160   -0.00000160   -0.00000160
     atom    3 type  1   force =    -0.00000000    0.00000000   -0.00000000

     Total force =     0.000004     Total SCF correction =     0.000002
     SCF correction compared to forces is large: reduce conv_thr to get better values

     Computing stress (Cartesian axis) and pressure

          total   stress  (Ry/bohr**3)                   (kbar)     P=    0.06
   0.00000039   0.00000007   0.00000007          0.06      0.01      0.01
   0.00000007   0.00000039   0.00000007          0.01      0.06      0.01
   0.00000007   0.00000007   0.00000039          0.01      0.01      0.06

     Writing output data file na.9r.save

     General routines

     Parallel routines

   This run was terminated on:  10:53:28  14Feb2018

   JOB DONE.