     Program PWSCF v.6.1 (svn rev. 13369) starts on 12Feb2018 at 20:32:36

     Current dimensions of program PWSCF are:
     Max number of different atomic species (ntypx) = 10
     Max number of k-points (npk) =  80000
     Max angular momentum in pseudopotentials (lmaxx) =  3

     Subspace diagonalization in iterative solution of the eigenvalue problem:
     a serial algorithm will be used

     bravais-lattice index     =           -5
     lattice parameter (alat)  =      17.0000  a.u.
     unit-cell volume          =     662.3628 (a.u.)^3
     number of atoms/cell      =            3
     number of atomic types    =            1
     number of electrons       =        27.00
     number of Kohn-Sham states=           18
     kinetic-energy cutoff     =      40.0000  Ry
     charge density cutoff     =     320.0000  Ry
     convergence threshold     =      1.0E-10
     mixing beta               =       0.7000
     number of iterations used =            8  plain     mixing
     Exchange-correlation      = SLA  PW   PBE  PBE ( 1  4  3  4 0 0)
     nstep                     =           50

     celldm(1)=  17.000000  celldm(2)=   0.000000  celldm(3)=   0.000000
     celldm(4)=   0.920000  celldm(5)=   0.000000  celldm(6)=   0.000000

     crystal axes: (cart. coord. in units of alat)
               a(1) = (   0.373182   0.656024   0.656024 )
               a(2) = (   0.656024   0.373182   0.656024 )
               a(3) = (   0.656024   0.656024   0.373182 )

     reciprocal axes: (cart. coord. in units 2 pi/alat)
               b(1) = ( -2.159226  1.376308  1.376308 )
               b(2) = (  1.376308 -2.159226  1.376308 )
               b(3) = (  1.376308  1.376308 -2.159226 )

     PseudoPot. # 1 for Na read from file:
     /home/s1333534/quantum_espresso/qe-6.1/pseudo/Na_pbe_v1.uspp.F.UPF
     MD5 check sum: 76a99c7e9422403d3e93cbc85ab7bccb
     Pseudo is Ultrasoft, Zval =  9.0
     Generated by new atomic code, or converted to UPF format
     Using radial grid of  819 points,  5 beta functions with:
                l(1) =   0
                l(2) =   0
                l(3) =   1
                l(4) =   1
                l(5) =   2
     Q(r) pseudized with  8 coefficients,  rinner =    1.250   1.250   1.250
                                                       1.250   1.250

     atomic species   valence    mass     pseudopotential
        Na             9.00    22.99000     Na( 1.00)

     12 Sym. Ops., with inversion, found

   Cartesian axes

     site n.     atom                  positions (alat units)
         1           Na  tau(   1) = (   1.2171236   1.2171236   1.2171236  )
         2           Na  tau(   2) = (   0.4681063   0.4681063   0.4681063  )
         3           Na  tau(   3) = (   0.8426150   0.8426150   0.8426150  )

     number of k points=   770  Marzari-Vanderbilt smearing, width (Ry)=  0.0200

     Number of k-points >= 100: set verbosity='high' to print them.

     Initial potential from superposition of free atoms

     starting charge   26.98113, renormalised to   27.00000
     Starting wfc are   15 randomized atomic wfcs +    3 random wfc

     Self-consistent Calculation

     iteration #  1     ecut=    40.00 Ry     beta=0.70
     Davidson diagonalization with overlap
     ethr =  1.00E-02,  avg # of iterations =  5.5

     Threshold (ethr) on eigenvalues was too large:
     Diagonalizing with lowered threshold

     Davidson diagonalization with overlap
     ethr =  9.94E-06,  avg # of iterations =  7.4

     total energy              =    -285.31611804 Ry
     Harris-Foulkes estimate   =    -285.31691275 Ry
     estimated scf accuracy    <       0.00278138 Ry

[...]

     End of self-consistent calculation

     Number of k-points >= 100: set verbosity='high' to print the bands.

     the Fermi energy is     2.1616 ev

!    total energy              =    -285.31645438 Ry
     Harris-Foulkes estimate   =    -285.31645438 Ry
     estimated scf accuracy    <          6.2E-13 Ry

     The total energy is the sum of the following terms:

     one-electron contribution =    -256.14327683 Ry
     hartree contribution      =     129.80226548 Ry
     xc contribution           =     -42.85565928 Ry
     ewald contribution        =    -116.11964061 Ry
     smearing contrib. (-TS)   =      -0.00014315 Ry

     convergence has been achieved in   8 iterations

     Forces acting on atoms (cartesian axes, Ry/au):

     atom    1 type  1   force =    -0.00000461   -0.00000461   -0.00000461
     atom    2 type  1   force =     0.00000461    0.00000461    0.00000461
     atom    3 type  1   force =    -0.00000000   -0.00000000    0.00000000

     Total force =     0.000011     Total SCF correction =     0.000000

     Computing stress (Cartesian axis) and pressure

          total   stress  (Ry/bohr**3)                   (kbar)     P=    9.02
   0.00006132   0.00000277   0.00000277          9.02      0.41      0.41
   0.00000277   0.00006132   0.00000277          0.41      9.02      0.41
   0.00000277   0.00000277   0.00006132          0.41      0.41      9.02

     BFGS Geometry Optimization

     number of scf cycles    =   1
     number of bfgs steps    =   0

     enthalpy new            =    -285.2894384734 Ry

     new trust radius        =       0.0026903266 bohr
     new conv_thr            =            1.0E-10 Ry

     new unit-cell volume =    663.38352 a.u.^3 (    98.30329 Ang^3 )
     density =      1.16504 g/cm^3

CELL_PARAMETERS (alat= 17.00000000)
   0.373463905   0.656432263   0.656432263
   0.656432263   0.373463905   0.656432263
   0.656432263   0.656432263   0.373463905

ATOMIC_POSITIONS (crystal)
Na       0.722229839   0.722229839   0.722229839
Na       0.277770161   0.277770161   0.277770161
Na       0.500000000   0.500000000   0.500000000

     Writing output data file na.9r.save
     NEW-OLD atomic charge density approx. for the potential
     extrapolated charge   27.04152, renormalised to   27.00000

[...]

     enthalpy old            =    -285.2894384734 Ry
     enthalpy new            =    -285.2894594649 Ry

     CASE: enthalpy_new < enthalpy_old

     WARNING: bfgs curvature condition failed, Theta= 0.855
     new trust radius        =       0.0029600052 bohr
     new conv_thr            =            1.0E-12 Ry

[...]

     number of scf cycles    =  12
     number of bfgs steps    =  11

     enthalpy old            =    -285.2896068380 Ry
     enthalpy new            =    -285.2896075207 Ry

     CASE: enthalpy_new < enthalpy_old

     new trust radius        =       0.0014849394 bohr
     new conv_thr            =            1.0E-12 Ry

     new unit-cell volume =    678.15571 a.u.^3 (   100.49231 Ang^3 )
     density =      1.13966 g/cm^3

[...]

ATOMIC_POSITIONS (crystal)
Na       0.722224953   0.722224953   0.722224953
Na       0.277775047   0.277775047   0.277775047
Na       0.500000000   0.500000000   0.500000000

     Writing output data file na.9r.save
     NEW-OLD atomic charge density approx. for the potential
     extrapolated charge   26.99092, renormalised to   27.00000

[...]

     Threshold (ethr) on eigenvalues was too large:
     Diagonalizing with lowered threshold

     Davidson diagonalization with overlap
     ethr =  3.65E-08,  avg # of iterations =  1.1

[...]

     Total force =     0.000000     Total SCF correction =     0.000000

[...]

     bfgs converged in  13 scf cycles and  12 bfgs steps
     (criteria: energy <  1.0E-04 Ry, force <  1.0E-03Ry/Bohr, cell <  5.0E-02kbar)

     End of BFGS Geometry Optimization

     Final enthalpy =    -285.2896076880 Ry
Begin final coordinates
     new unit-cell volume =    678.15571 a.u.^3 (   100.49231 Ang^3 )
     density =      1.13966 g/cm^3

CELL_PARAMETERS (alat= 17.00000000)
   0.379175203   0.663592482   0.663592482
   0.663592482   0.379175203   0.663592482
   0.663592482   0.663592482   0.379175203

ATOMIC_POSITIONS (crystal)
Na       0.722224953   0.722224953   0.722224953
Na       0.277775047   0.277775047   0.277775047
Na       0.500000000   0.500000000   0.500000000
End final coordinates

     A final scf calculation at the relaxed structure.
     The G-vectors are recalculated for the final unit cell
     Results may differ from those at the preceding step.

     bravais-lattice index     =           -5
     lattice parameter (alat)  =      17.0000  a.u.
     unit-cell volume          =     678.1557 (a.u.)^3
     number of atoms/cell      =            3
     number of atomic types    =            1
     number of electrons       =        27.00
     number of Kohn-Sham states=           18
     kinetic-energy cutoff     =      40.0000  Ry
     charge density cutoff     =     320.0000  Ry
     convergence threshold     =      1.0E-12
     mixing beta               =       0.7000
     number of iterations used =            8  plain     mixing
     Exchange-correlation      = SLA  PW   PBE  PBE ( 1  4  3  4 0 0)

     celldm(1)=  17.000000  celldm(2)=   0.000000  celldm(3)=   0.000000
     celldm(4)=   0.920000  celldm(5)=   0.000000  celldm(6)=   0.000000

     crystal axes: (cart. coord. in units of alat)
               a(1) = (   0.379175   0.663592   0.663592 )
               a(2) = (   0.663592   0.379175   0.663592 )
               a(3) = (   0.663592   0.663592   0.379175 )

     reciprocal axes: (cart. coord. in units 2 pi/alat)
               b(1) = ( -2.148626  1.367335  1.367335 )
               b(2) = (  1.367335 -2.148626  1.367335 )
               b(3) = (  1.367335  1.367335 -2.148626 )

     PseudoPot. # 1 for Na read from file:
     /home/s1333534/quantum_espresso/qe-6.1/pseudo/Na_pbe_v1.uspp.F.UPF
     MD5 check sum: 76a99c7e9422403d3e93cbc85ab7bccb
     Pseudo is Ultrasoft, Zval =  9.0
     Generated by new atomic code, or converted to UPF format
     Using radial grid of  819 points,  5 beta functions with:
                l(1) =   0
                l(2) =   0
                l(3) =   1
                l(4) =   1
                l(5) =   2
     Q(r) pseudized with  8 coefficients,  rinner =    1.250   1.250   1.250
                                                       1.250   1.250

     atomic species   valence    mass     pseudopotential
        Na             9.00    22.99000     Na( 1.00)

     12 Sym. Ops., with inversion, found

   Cartesian axes

     site n.     atom                  positions (alat units)
         1           Na  tau(   1) = (   1.2323759   1.2323759   1.2323759  )
         2           Na  tau(   2) = (   0.4739843   0.4739843   0.4739843  )
         3           Na  tau(   3) = (   0.8531801   0.8531801   0.8531801  )

     number of k points=   770  Marzari-Vanderbilt smearing, width (Ry)=  0.0200

     Number of k-points >= 100: set verbosity='high' to print them.

     Initial potential from superposition of free atoms

     starting charge   26.98113, renormalised to   27.00000
     Starting wfc are   15 randomized atomic wfcs +    3 random wfc

     Writing output data file na.9r.save

     Self-consistent Calculation

     iteration #  1     ecut=    40.00 Ry     beta=0.70
     Davidson diagonalization with overlap
     c_bands:  1 eigenvalues not converged
     c_bands:  1 eigenvalues not converged
     c_bands:  1 eigenvalues not converged
     c_bands:  1 eigenvalues not converged
     c_bands:  1 eigenvalues not converged
     ethr =  1.00E-06,  avg # of iterations = 13.8

[...]

     total energy              =    -285.31762836 Ry
     Harris-Foulkes estimate   =    -285.31762836 Ry
     estimated scf accuracy    <          2.9E-12 Ry

     iteration #  9     ecut=    40.00 Ry     beta=0.70
     Davidson diagonalization with overlap
     ethr =  1.00E-13,  avg # of iterations =  1.0

     End of self-consistent calculation

     Number of k-points >= 100: set verbosity='high' to print the bands.

     the Fermi energy is     2.0507 ev

!    total energy              =    -285.31762836 Ry
     Harris-Foulkes estimate   =    -285.31762836 Ry
     estimated scf accuracy    <          9.5E-14 Ry

     The total energy is the sum of the following terms:

     one-electron contribution =    -257.73122621 Ry
     hartree contribution      =     130.47179515 Ry
     xc contribution           =     -42.84589596 Ry
     ewald contribution        =    -115.21217144 Ry
     smearing contrib. (-TS)   =      -0.00012991 Ry

     convergence has been achieved in   9 iterations

     Forces acting on atoms (cartesian axes, Ry/au):

     atom    1 type  1   force =     0.00000203    0.00000203    0.00000203
     atom    2 type  1   force =    -0.00000203   -0.00000203   -0.00000203
     atom    3 type  1   force =     0.00000000    0.00000000    0.00000000

     Total force =     0.000005     Total SCF correction =     0.000001
     SCF correction compared to forces is large: reduce conv_thr to get better values

     Computing stress (Cartesian axis) and pressure

          total   stress  (Ry/bohr**3)                   (kbar)     P=    6.38
   0.00004338   0.00000035   0.00000035          6.38      0.05      0.05
   0.00000035   0.00004338   0.00000035          0.05      6.38      0.05
   0.00000035   0.00000035   0.00004338          0.05      0.05      6.38

     Writing output data file na.9r.save

     General routines

     Parallel routines

   This run was terminated on:  22:29:41  12Feb2018

   JOB DONE.