     Program PWSCF v.6.1 (svn rev. 13369) starts on 26Jan2018 at 19: 2:10

     Current dimensions of program PWSCF are:
     Max number of different atomic species (ntypx) = 10
     Max number of k-points (npk) =  40000
     Max angular momentum in pseudopotentials (lmaxx) =  3

     Subspace diagonalization in iterative solution of the eigenvalue problem:
     a serial algorithm will be used

     bravais-lattice index     =            2
     lattice parameter (alat)  =       9.8733  a.u.
     unit-cell volume          =     240.6146 (a.u.)^3
     number of atoms/cell      =            1
     number of atomic types    =            1
     number of electrons       =         9.00
     number of Kohn-Sham states=            9
     kinetic-energy cutoff     =      40.0000  Ry
     charge density cutoff     =     320.0000  Ry
     convergence threshold     =      1.0E-10
     mixing beta               =       0.7000
     number of iterations used =            8  plain     mixing
     Exchange-correlation      = SLA  PW   PBE  PBE ( 1  4  3  4 0 0)
     nstep                     =           50

     celldm(1)=   9.873262  celldm(2)=   0.000000  celldm(3)=   0.000000
     celldm(4)=   0.000000  celldm(5)=   0.000000  celldm(6)=   0.000000

     crystal axes: (cart. coord. in units of alat)
               a(1) = (  -0.500000   0.000000   0.500000 )
               a(2) = (   0.000000   0.500000   0.500000 )
               a(3) = (  -0.500000   0.500000   0.000000 )

     reciprocal axes: (cart. coord. in units 2 pi/alat)
               b(1) = ( -1.000000 -1.000000  1.000000 )
               b(2) = (  1.000000  1.000000  1.000000 )
               b(3) = ( -1.000000  1.000000 -1.000000 )

     PseudoPot. # 1 for Na read from file:
     /home/s1333534/quantum_espresso/qe-6.1/pseudo/Na_pbe_v1.uspp.F.UPF
     MD5 check sum: 76a99c7e9422403d3e93cbc85ab7bccb
     Pseudo is Ultrasoft, Zval =  9.0
     Generated by new atomic code, or converted to UPF format
     Using radial grid of  819 points,  5 beta functions with:
                l(1) =   0
                l(2) =   0
                l(3) =   1
                l(4) =   1
                l(5) =   2
     Q(r) pseudized with  8 coefficients,  rinner =    1.250   1.250   1.250
                                                       1.250   1.250

     atomic species   valence    mass     pseudopotential
        Na             9.00    22.99000     Na( 1.00)

     48 Sym. Ops., with inversion, found

   Cartesian axes

     site n.     atom                  positions (alat units)
         1           Na  tau(   1) = (   0.0000000   0.0000000   0.0000000  )

     number of k points=   280  Marzari-Vanderbilt smearing, width (Ry)=  0.0200

     Number of k-points >= 100: set verbosity='high' to print them.

     Initial potential from superposition of free atoms

     starting charge    8.99371, renormalised to    9.00000
     Starting wfc are    5 randomized atomic wfcs +    4 random wfc

     Self-consistent Calculation

     iteration #  1     ecut=    40.00 Ry     beta=0.70
     Davidson diagonalization with overlap
     ethr =  1.00E-02,  avg # of iterations =  5.5

     Threshold (ethr) on eigenvalues was too large:
     Diagonalizing with lowered threshold

     Davidson diagonalization with overlap
     ethr =  9.96E-06,  avg # of iterations =  3.8

     total energy              =     -95.10636187 Ry
     Harris-Foulkes estimate   =     -95.10658671 Ry
     estimated scf accuracy    <       0.00089402 Ry

[...]

     End of self-consistent calculation

     Number of k-points >= 100: set verbosity='high' to print the bands.

     the Fermi energy is     1.7681 ev

!    total energy              =     -95.10647440 Ry
     Harris-Foulkes estimate   =     -95.10647440 Ry
     estimated scf accuracy    <          8.2E-12 Ry

     The total energy is the sum of the following terms:

     one-electron contribution =     -87.29422265 Ry
     hartree contribution      =      44.07548724 Ry
     xc contribution           =     -14.27357224 Ry
     ewald contribution        =     -37.61409449 Ry
     smearing contrib. (-TS)   =      -0.00007226 Ry

     convergence has been achieved in   6 iterations

     Forces acting on atoms (cartesian axes, Ry/au):

     atom    1 type  1   force =     0.00000000    0.00000000    0.00000000

     Total force =     0.000000     Total SCF correction =     0.000000

     Computing stress (Cartesian axis) and pressure

          total   stress  (Ry/bohr**3)                   (kbar)     P=    0.35
   0.00000237   0.00000000   0.00000000          0.35      0.00      0.00
   0.00000000   0.00000237  -0.00000000          0.00      0.35     -0.00
   0.00000000  -0.00000000   0.00000237          0.00     -0.00      0.35

     BFGS Geometry Optimization

     number of scf cycles    =   1
     number of bfgs steps    =   0

     enthalpy new            =     -95.1064744020 Ry

     new trust radius        =       0.0001839560 bohr
     new conv_thr            =            1.0E-10 Ry

     new unit-cell volume =    240.65745 a.u.^3 (    35.66175 Ang^3 )
     density =      1.07050 g/cm^3

CELL_PARAMETERS (alat=  9.87326248)
  -0.500029648  -0.000000000   0.500029648
   0.000000000   0.500029648   0.500029648
  -0.500029648   0.500029648  -0.000000000

ATOMIC_POSITIONS (crystal)
Na       0.000000000   0.000000000   0.000000000

     Writing output data file na.fcc.save
     NEW-OLD atomic charge density approx. for the potential
     extrapolated charge    9.00160, renormalised to    9.00000

[...]

     enthalpy old            =     -95.1064744020 Ry
     enthalpy new            =     -95.1064744987 Ry

     CASE: enthalpy_new < enthalpy_old

[...]

     WARNING: bfgs curvature condition failed, Theta= 0.574
     uphill step: resetting bfgs history

[...]

     WARNING: bfgs curvature condition failed, Theta= 0.848
     new trust radius        =       0.0001775697 bohr
     new conv_thr            =            1.0E-12 Ry

[...]

     Threshold (ethr) on eigenvalues was too large:
     Diagonalizing with lowered threshold

     Davidson diagonalization with overlap
     ethr =  4.94E-08,  avg # of iterations =  1.0

[...]

     number of scf cycles    =   8
     number of bfgs steps    =   7

     enthalpy old            =     -95.1064750015 Ry
     enthalpy new            =     -95.1064751658 Ry

     CASE: enthalpy_new < enthalpy_old

     new trust radius        =       0.0008991558 bohr
     new conv_thr            =            1.0E-12 Ry

     new unit-cell volume =    241.28752 a.u.^3 (    35.75512 Ang^3 )
     density =      1.06770 g/cm^3

[...]

ATOMIC_POSITIONS (crystal)
Na       0.000000000   0.000000000   0.000000000

     Writing output data file na.fcc.save
     NEW-OLD atomic charge density approx. for the potential
     extrapolated charge    9.00781, renormalised to    9.00000

[...]

     bfgs converged in   9 scf cycles and   8 bfgs steps
     (criteria: energy <  1.0E-04 Ry, force <  1.0E-03Ry/Bohr, cell <  1.0E-01kbar)

     End of BFGS Geometry Optimization

     Final enthalpy =     -95.1064753065 Ry
Begin final coordinates
     new unit-cell volume =    241.28752 a.u.^3 (    35.75512 Ang^3 )
     density =      1.06770 g/cm^3

CELL_PARAMETERS (alat=  9.87326248)
  -0.500465649  -0.000000000   0.500465649
   0.000000000   0.500465649   0.500465649
  -0.500465649   0.500465649  -0.000000000

ATOMIC_POSITIONS (crystal)
Na       0.000000000   0.000000000   0.000000000
End final coordinates

     A final scf calculation at the relaxed structure.
     The G-vectors are recalculated for the final unit cell
     Results may differ from those at the preceding step.

     bravais-lattice index     =            2
     lattice parameter (alat)  =       9.8733  a.u.
     unit-cell volume          =     241.2875 (a.u.)^3
     number of atoms/cell      =            1
     number of atomic types    =            1
     number of electrons       =         9.00
     number of Kohn-Sham states=            9
     kinetic-energy cutoff     =      40.0000  Ry
     charge density cutoff     =     320.0000  Ry
     convergence threshold     =      1.0E-12
     mixing beta               =       0.7000
     number of iterations used =            8  plain     mixing
     Exchange-correlation      = SLA  PW   PBE  PBE ( 1  4  3  4 0 0)

     celldm(1)=   9.873262  celldm(2)=   0.000000  celldm(3)=   0.000000
     celldm(4)=   0.000000  celldm(5)=   0.000000  celldm(6)=   0.000000

     crystal axes: (cart. coord. in units of alat)
               a(1) = (  -0.500466  -0.000000   0.500466 )
               a(2) = (   0.000000   0.500466   0.500466 )
               a(3) = (  -0.500466   0.500466  -0.000000 )

     reciprocal axes: (cart. coord. in units 2 pi/alat)
               b(1) = ( -0.999070 -0.999070  0.999070 )
               b(2) = (  0.999070  0.999070  0.999070 )
               b(3) = ( -0.999070  0.999070 -0.999070 )

     PseudoPot. # 1 for Na read from file:
     /home/s1333534/quantum_espresso/qe-6.1/pseudo/Na_pbe_v1.uspp.F.UPF
     MD5 check sum: 76a99c7e9422403d3e93cbc85ab7bccb
     Pseudo is Ultrasoft, Zval =  9.0
     Generated by new atomic code, or converted to UPF format
     Using radial grid of  819 points,  5 beta functions with:
                l(1) =   0
                l(2) =   0
                l(3) =   1
                l(4) =   1
                l(5) =   2
     Q(r) pseudized with  8 coefficients,  rinner =    1.250   1.250   1.250
                                                       1.250   1.250

     atomic species   valence    mass     pseudopotential
        Na             9.00    22.99000     Na( 1.00)

     48 Sym. Ops., with inversion, found

   Cartesian axes

     site n.     atom                  positions (alat units)
         1           Na  tau(   1) = (   0.0000000   0.0000000   0.0000000  )

     number of k points=   280  Marzari-Vanderbilt smearing, width (Ry)=  0.0200

     Number of k-points >= 100: set verbosity='high' to print them.

     Initial potential from superposition of free atoms

     starting charge    8.99371, renormalised to    9.00000
     Starting wfc are    5 randomized atomic wfcs +    4 random wfc

     Writing output data file na.fcc.save

     Self-consistent Calculation

     iteration #  1     ecut=    40.00 Ry     beta=0.70
     Davidson diagonalization with overlap
     c_bands:  1 eigenvalues not converged
     c_bands:  1 eigenvalues not converged
     c_bands:  1 eigenvalues not converged
     c_bands:  1 eigenvalues not converged
     c_bands:  1 eigenvalues not converged
     c_bands:  1 eigenvalues not converged
     ethr =  1.00E-06,  avg # of iterations = 11.5

[...]

     total energy              =     -95.10648876 Ry
     Harris-Foulkes estimate   =     -95.10648876 Ry
     estimated scf accuracy    <          3.6E-12 Ry

     iteration #  8     ecut=    40.00 Ry     beta=0.70
     Davidson diagonalization with overlap
     ethr =  1.00E-13,  avg # of iterations =  1.6

     End of self-consistent calculation

     Number of k-points >= 100: set verbosity='high' to print the bands.

     the Fermi energy is     1.7561 ev

!    total energy              =     -95.10648876 Ry
     Harris-Foulkes estimate   =     -95.10648876 Ry
     estimated scf accuracy    <          4.0E-13 Ry

     The total energy is the sum of the following terms:

     one-electron contribution =     -87.35561587 Ry
     hartree contribution      =      44.10150076 Ry
     xc contribution           =     -14.27320425 Ry
     ewald contribution        =     -37.57909714 Ry
     smearing contrib. (-TS)   =      -0.00007226 Ry

     convergence has been achieved in   8 iterations

     Forces acting on atoms (cartesian axes, Ry/au):

     atom    1 type  1   force =     0.00000000    0.00000000    0.00000000

     Total force =     0.000000     Total SCF correction =     0.000000

     Computing stress (Cartesian axis) and pressure

          total   stress  (Ry/bohr**3)                   (kbar)     P=    0.10
   0.00000069  -0.00000000   0.00000000          0.10     -0.00      0.00
  -0.00000000   0.00000069   0.00000000         -0.00      0.10      0.00
   0.00000000   0.00000000   0.00000069          0.00      0.00      0.10

     Writing output data file na.fcc.save

     General routines

     Parallel routines

   This run was terminated on:  19: 6: 1  26Jan2018

   JOB DONE.