     Program PHONON v.6.1 (svn rev. 13369) starts on  1Feb2018 at  5:25:57

     Reading data from directory:
     ./na.bcc.save

   Info: using nr1, nr2, nr3 values from input

[...]

     IMPORTANT: XC functional enforced from input :
     Exchange-correlation      = SLA  PW   PBE  PBE ( 1  4  3  4 0 0)
     Any further DFT definition will be discarded
     Please, verify this is what you really want

     Dynamical matrices for ( 6, 6, 6)  uniform grid of q-points
     (  16q-points):
       N         xq(1)         xq(2)         xq(3)
       1   0.000000000   0.000000000   0.000000000
       2   0.000000000  -0.166666667   0.166666667
       3   0.000000000  -0.333333333   0.333333333
       4   0.000000000   0.500000000  -0.500000000
       5  -0.166666667  -0.166666667   0.333333333
       6  -0.166666667   0.666666667  -0.500000000
       7  -0.333333333   0.666666667  -0.333333333
       8   0.000000000   0.000000000   0.333333333
       9   0.000000000  -0.166666667   0.500000000
      10   0.000000000   0.666666667  -0.333333333
      11  -0.166666667   0.833333333  -0.333333333
      12   0.666666667  -0.666666667   0.333333333
      13   0.500000000  -0.500000000   0.333333333
      14   0.000000000   0.000000000   0.666666667
      15   0.000000000   0.833333333  -0.166666667
      16   0.000000000   0.000000000  -1.000000000

     Calculation of q =    0.0000000   0.0000000   0.0000000

     bravais-lattice index     =            3
     lattice parameter (alat)  =       8.4000  a.u.
     unit-cell volume          =     296.3520 (a.u.)^3
     number of atoms/cell      =            1
     number of atomic types    =            1
     kinetic-energy cut-off    =      40.0000  Ry
     charge density cut-off    =     320.0000  Ry
     convergence threshold     =      1.0E-16
     beta                      =       0.7000
     number of iterations used =            4
     Exchange-correlation      = SLA  PW   PBE  PBE ( 1  4  3  4 0 0)

     celldm(1)=    8.40000  celldm(2)=    0.00000  celldm(3)=    0.00000
     celldm(4)=    0.00000  celldm(5)=    0.00000  celldm(6)=    0.00000

     crystal axes: (cart. coord. in units of alat)
               a(1) = (  0.5000  0.5000  0.5000 )
               a(2) = ( -0.5000  0.5000  0.5000 )
               a(3) = ( -0.5000 -0.5000  0.5000 )

     reciprocal axes: (cart. coord. in units 2 pi/alat)
               b(1) = (  1.0000  0.0000  1.0000 )
               b(2) = ( -1.0000  1.0000  0.0000 )
               b(3) = (  0.0000 -1.0000  1.0000 )

     Atoms inside the unit cell:

     Cartesian axes

     site n.  atom      mass           positions (alat units)
        1     Na  22.9900   tau(    1) = (    0.00000    0.00000    0.00000  )

     Computing dynamical matrix for
                    q = (   0.0000000   0.0000000   0.0000000 )

     49 Sym.Ops. (with q -> -q+G )

     G cutoff =  571.9378  (   1792 G-vectors)     FFT grid: ( 45, 45, 45)
     G cutoff =  285.9689  (    626 G-vectors)  smooth grid: ( 30, 30, 30)

     number of k points=   250  Marzari-Vanderbilt smearing, width (Ry)=  0.0200

     PseudoPot. # 1 for Na read from file:
     /home/s1333534/quantum_espresso/qe-6.1/pseudo/Na_pbe_v1.uspp.F.UPF
     MD5 check sum: 76a99c7e9422403d3e93cbc85ab7bccb
     Pseudo is Ultrasoft, Zval =  9.0
     Generated by new atomic code, or converted to UPF format
     Using radial grid of  819 points,  5 beta functions with:
                l(1) =   0
                l(2) =   0
                l(3) =   1
                l(4) =   1
                l(5) =   2
     Q(r) pseudized with  8 coefficients,  rinner =    1.250   1.250   1.250
                                                       1.250   1.250

     Mode symmetry, O_h (m-3m)  point group:

     Atomic displacements:
     There are   1 irreducible representations

     Representation     1      3 modes -T_1u G_15  G_4-  To be done

     Alpha used in Ewald sum =   2.8000

     Representation #  1 modes #   1  2  3

     Self-consistent Calculation

     Pert. #  1: Fermi energy shift (Ry) =     1.1417E-25    -1.0188E-37
     Pert. #  2: Fermi energy shift (Ry) =     1.1848E-26    -2.8604E-37
     Pert. #  3: Fermi energy shift (Ry) =     1.2278E-25    -1.0971E-37

      thresh= 1.000E-02 alpha_mix =  0.700 |ddv_scf|^2 =  7.737E-07

[...]

     Pert. #  1: Fermi energy shift (Ry) =    -2.3695E-26    -7.1746E-43
     Pert. #  2: Fermi energy shift (Ry) =     1.2278E-25     4.7831E-43
     Pert. #  3: Fermi energy shift (Ry) =     4.6313E-26     2.7503E-42

[...]

     End of self-consistent calculation

     Convergence has been achieved

     Number of q in the star =    1
     List of q in the star:
          1   0.000000000   0.000000000   0.000000000

     Diagonalizing the dynamical matrix

     q = (    0.000000000   0.000000000   0.000000000 )

     freq (    1) =      -0.447903 [THz] =     -14.940422 [cm-1]
     freq (    2) =      -0.447903 [THz] =     -14.940422 [cm-1]
     freq (    3) =      -0.447903 [THz] =     -14.940422 [cm-1]

[...]

     freq (  1 -  3) =        -14.9  [cm-1]   --> T_1u G_15  G_4- I

[...]

     bravais-lattice index     =            3
     lattice parameter (alat)  =       8.4000  a.u.
     unit-cell volume          =     296.3520 (a.u.)^3
     number of atoms/cell      =            1
     number of atomic types    =            1
     number of electrons       =         9.00
     number of Kohn-Sham states=            9
     kinetic-energy cutoff     =      40.0000  Ry
     charge density cutoff     =     320.0000  Ry
     Exchange-correlation      = SLA  PW   PBE  PBE ( 1  4  3  4 0 0)

[...]

     atomic species   valence    mass     pseudopotential
        Na             9.00    22.99000     Na( 1.00)

     48 Sym. Ops., with inversion, found

[...]

     site n.     atom                  positions (alat units)
         1           Na  tau(   1) = (   0.0000000   0.0000000   0.0000000  )

[...]

     Number of k-points >= 100: set verbosity='high' to print them.

     The potential is recalculated from file :
     ./_ph0/na.bcc.save/charge-density.dat

     Starting wfc are    5 atomic +    4 random wfc

     Band Structure Calculation
     Davidson diagonalization with overlap

     ethr =  1.11E-10,  avg # of iterations = 24.3

     End of band structure calculation

     Number of k-points >= 100: set verbosity='high' to print the bands.

     the Fermi energy is     0.9627 ev

     Writing output data file na.bcc.save

[...]

      4 Sym.Ops. (no q -> -q+G )

[...]

     Mode symmetry, C_2v (mm2)  point group:

[...]

     Representation     1      1 modes -A_1  D_1  S_1  To be done

[...]

     Representation #  1 mode #   1

[...]

     freq (  1 -  1) =         14.3  [cm-1]   --> B_1  D_3  S_3
     freq (  2 -  2) =         38.6  [cm-1]   --> B_2  D_4  S_4
     freq (  3 -  3) =         52.3  [cm-1]   --> A_1  D_1  S_1

[...]

     Mode symmetry, D_2h (mmm)  point group:

[...]

     Representation     1      1 modes -B_1u  To be done

[...]

     Representation     3      1 modes -B_3u  To be done

[...]

     Mode symmetry, D_2h (mmm)  point group:

     freq (  1 -  1) =         24.7  [cm-1]   --> B_2u
     freq (  2 -  2) =         76.0  [cm-1]   --> B_1u
     freq (  3 -  3) =         98.1  [cm-1]   --> B_3u

[...]

     Mode symmetry, C_s (m)     point group:

[...]

     Representation     1      1 modes -A'  To be done

[...]

     Representation     3      1 modes -A''  To be done

[...]

     freq (  1 -  1) =         34.5  [cm-1]   --> A'
     freq (  2 -  2) =         54.2  [cm-1]   --> A''
     freq (  3 -  3) =         79.7  [cm-1]   --> A'

[...]

     No symmetry!

[...]

     Mode symmetry, C_1 (1)     point group:

[...]

     Representation     1      1 modes -A  To be done

[...]

     Representation     3      1 modes -A  To be done

[...]

     Mode symmetry, C_1 (1)     point group:

     freq (  1 -  1) =         40.9  [cm-1]   --> A
     freq (  2 -  2) =         75.3  [cm-1]   --> A
     freq (  3 -  3) =         94.8  [cm-1]   --> A

[...]

     Mode symmetry, C_3v (3m)   point group:

[...]

     Representation     1      1 modes -A_1  L_1  To be done

     Representation     2      2 modes -E    L_3  To be done

[...]

     freq (  1 -  1) =         51.2  [cm-1]   --> A_1  L_1
     freq (  2 -  3) =         88.4  [cm-1]   --> E    L_3

[...]

     Mode symmetry, C_4v (4mm)  point group:

[...]

     Representation     2      2 modes -E    G_5 D_5  To be done

[...]

     freq (  1 -  1) =         51.7  [cm-1]   --> A_1  G_1 D_1
     freq (  2 -  3) =         54.1  [cm-1]   --> E    G_5 D_5

[...]

     Representation     2      1 modes -A'  To be done

     Representation     3      1 modes -A''  To be done

[...]

     Mode symmetry, C_s (m)     point group:

     freq (  1 -  1) =         64.1  [cm-1]   --> A'
     freq (  2 -  2) =         89.8  [cm-1]   --> A''
     freq (  3 -  3) =         96.1  [cm-1]   --> A'

[...]

     Representation     1      1 modes -A_1  L_1  To be done

     Representation     2      2 modes -E    L_3  To be done

[...]

     Mode symmetry, C_3v (3m)   point group:

     freq (  1 -  2) =         59.5  [cm-1]   --> E    L_3
     freq (  3 -  3) =         92.7  [cm-1]   --> A_1  L_1

[...]

     Representation     2      2 modes -E    G_5 D_5  To be done

[...]

     Mode symmetry, C_4v (4mm)  point group:

     freq (  1 -  1) =         84.6  [cm-1]   --> A_1  G_1 D_1
     freq (  2 -  3) =         89.1  [cm-1]   --> E    G_5 D_5

[...]

      4 Sym.Ops. (no q -> -q+G )

[...]

     Representation     3      1 modes -B_2  D_4  S_4  To be done

[...]

     Representation #  3 mode #   3

[...]

     Mode symmetry, C_2v (mm2)  point group:

     freq (  1 -  1) =         87.4  [cm-1]   --> A_1  D_1  S_1
     freq (  2 -  2) =         95.6  [cm-1]   --> B_1  D_3  S_3
     freq (  3 -  3) =        101.0  [cm-1]   --> B_2  D_4  S_4

     Calculation of q =    0.0000000   0.0000000  -1.0000000

[...]

   Info: using nr1, nr2, nr3 values from input

     bravais-lattice index     =            3
     lattice parameter (alat)  =       8.4000  a.u.
     unit-cell volume          =     296.3520 (a.u.)^3
     number of atoms/cell      =            1
     number of atomic types    =            1
     number of electrons       =         9.00
     number of Kohn-Sham states=            9
     kinetic-energy cutoff     =      40.0000  Ry
     charge density cutoff     =     320.0000  Ry
     Exchange-correlation      = SLA  PW   PBE  PBE ( 1  4  3  4 0 0)

[...]

     atomic species   valence    mass     pseudopotential
        Na             9.00    22.99000     Na( 1.00)

     48 Sym. Ops., with inversion, found

[...]

     site n.     atom                  positions (alat units)
         1           Na  tau(   1) = (   0.0000000   0.0000000   0.0000000  )

[...]

     Number of k-points >= 100: set verbosity='high' to print them.

     The potential is recalculated from file :
     ./_ph0/na.bcc.save/charge-density.dat

     Starting wfc are    5 atomic +    4 random wfc

     Band Structure Calculation
     Davidson diagonalization with overlap

     ethr =  1.11E-10,  avg # of iterations = 24.5

     End of band structure calculation

     Number of k-points >= 100: set verbosity='high' to print the bands.

     the Fermi energy is     0.9627 ev

     Writing output data file na.bcc.save

     bravais-lattice index     =            3
     lattice parameter (alat)  =       8.4000  a.u.
     unit-cell volume          =     296.3520 (a.u.)^3
     number of atoms/cell      =            1
     number of atomic types    =            1
     kinetic-energy cut-off    =      40.0000  Ry
     charge density cut-off    =     320.0000  Ry
     convergence threshold     =      1.0E-16
     beta                      =       0.7000
     number of iterations used =            4
     Exchange-correlation      = SLA  PW   PBE  PBE ( 1  4  3  4 0 0)

     celldm(1)=    8.40000  celldm(2)=    0.00000  celldm(3)=    0.00000
     celldm(4)=    0.00000  celldm(5)=    0.00000  celldm(6)=    0.00000

     crystal axes: (cart. coord. in units of alat)
               a(1) = (  0.5000  0.5000  0.5000 )
               a(2) = ( -0.5000  0.5000  0.5000 )
               a(3) = ( -0.5000 -0.5000  0.5000 )

     reciprocal axes: (cart. coord. in units 2 pi/alat)
               b(1) = (  1.0000  0.0000  1.0000 )
               b(2) = ( -1.0000  1.0000  0.0000 )
               b(3) = (  0.0000 -1.0000  1.0000 )

     Atoms inside the unit cell:

     Cartesian axes

     site n.  atom      mass           positions (alat units)
        1     Na  22.9900   tau(    1) = (    0.00000    0.00000    0.00000  )

     Computing dynamical matrix for
                    q = (   0.0000000   0.0000000  -1.0000000 )

     49 Sym.Ops. (with q -> -q+G )

     G cutoff =  571.9378  (   1792 G-vectors)     FFT grid: ( 45, 45, 45)
     G cutoff =  285.9689  (    626 G-vectors)  smooth grid: ( 30, 30, 30)

     number of k points=   500  Marzari-Vanderbilt smearing, width (Ry)=  0.0200

     PseudoPot. # 1 for Na read from file:
     /home/s1333534/quantum_espresso/qe-6.1/pseudo/Na_pbe_v1.uspp.F.UPF
     MD5 check sum: 76a99c7e9422403d3e93cbc85ab7bccb
     Pseudo is Ultrasoft, Zval =  9.0
     Generated by new atomic code, or converted to UPF format
     Using radial grid of  819 points,  5 beta functions with:
                l(1) =   0
                l(2) =   0
                l(3) =   1
                l(4) =   1
                l(5) =   2
     Q(r) pseudized with  8 coefficients,  rinner =    1.250   1.250   1.250
                                                       1.250   1.250

[...]

     Atomic displacements:
     There are   1 irreducible representations

     Representation     1      3 modes -T_1u G_15  G_4-  To be done

     Alpha used in Ewald sum =   2.8000

     Representation #  1 modes #   1  2  3

     Self-consistent Calculation

[...]

      thresh= 1.562E-09 alpha_mix =  0.700 |ddv_scf|^2 =  3.350E-19

     End of self-consistent calculation

     Convergence has been achieved

     Number of q in the star =    1
     List of q in the star:
          1   0.000000000   0.000000000  -1.000000000

     Diagonalizing the dynamical matrix

     q = (    0.000000000   0.000000000  -1.000000000 )

     freq (    1) =       3.063063 [THz] =     102.172777 [cm-1]
     freq (    2) =       3.063063 [THz] =     102.172777 [cm-1]
     freq (    3) =       3.063063 [THz] =     102.172777 [cm-1]

     Mode symmetry, O_h (m-3m)  point group:

     freq (  1 -  3) =        102.2  [cm-1]   --> T_1u G_15  G_4-

     General routines

     Parallel routines

     INITIALIZATION:

     DYNAMICAL MATRIX:

      General routines

   This run was terminated on:   7:21:27   1Feb2018

   JOB DONE.