     Program PWSCF v.6.1 (svn rev. 13369) starts on 20Dec2017 at 17: 3: 5

     Current dimensions of program PWSCF are:
     Max number of different atomic species (ntypx) = 10
     Max number of k-points (npk) =  40000
     Max angular momentum in pseudopotentials (lmaxx) =  3

     Subspace diagonalization in iterative solution of the eigenvalue problem:
     a serial algorithm will be used

     bravais-lattice index     =            3
     lattice parameter (alat)  =       6.7473  a.u.
     unit-cell volume          =     153.5883 (a.u.)^3
     number of atoms/cell      =            1
     number of atomic types    =            1
     number of electrons       =         9.00
     number of Kohn-Sham states=            9
     kinetic-energy cutoff     =      40.0000  Ry
     charge density cutoff     =     320.0000  Ry
     convergence threshold     =      1.0E-08
     mixing beta               =       0.7000
     number of iterations used =            8  plain     mixing
     Exchange-correlation      = SLA  PW   PBE  PBE ( 1  4  3  4 0 0)
     nstep                     =           50

     celldm(1)=   6.747290  celldm(2)=   0.000000  celldm(3)=   0.000000
     celldm(4)=   0.000000  celldm(5)=   0.000000  celldm(6)=   0.000000

     crystal axes: (cart. coord. in units of alat)
               a(1) = (   0.500000   0.500000   0.500000 )
               a(2) = (  -0.500000   0.500000   0.500000 )
               a(3) = (  -0.500000  -0.500000   0.500000 )

     reciprocal axes: (cart. coord. in units 2 pi/alat)
               b(1) = (  1.000000  0.000000  1.000000 )
               b(2) = ( -1.000000  1.000000  0.000000 )
               b(3) = (  0.000000 -1.000000  1.000000 )

     PseudoPot. # 1 for Na read from file:
     /home/s1333534/quantum_espresso/qe-6.1/pseudo/Na_pbe_v1.uspp.F.UPF
     MD5 check sum: 76a99c7e9422403d3e93cbc85ab7bccb
     Pseudo is Ultrasoft, Zval =  9.0
     Generated by new atomic code, or converted to UPF format
     Using radial grid of  819 points,  5 beta functions with:
                l(1) =   0
                l(2) =   0
                l(3) =   1
                l(4) =   1
                l(5) =   2
     Q(r) pseudized with  8 coefficients,  rinner =    1.250   1.250   1.250
                                                       1.250   1.250

     atomic species   valence    mass     pseudopotential
        Na             9.00    22.99000     Na( 1.00)

     48 Sym. Ops., with inversion, found

   Cartesian axes

     site n.     atom                  positions (alat units)
         1           Na  tau(   1) = (   0.0000000   0.0000000   0.0000000  )

     number of k points=   250  Marzari-Vanderbilt smearing, width (Ry)=  0.0200

     Number of k-points >= 100: set verbosity='high' to print them.

     Initial potential from superposition of free atoms

     starting charge    8.99371, renormalised to    9.00000
     Starting wfc are    5 randomized atomic wfcs +    4 random wfc

     Self-consistent Calculation

     iteration #  1     ecut=    40.00 Ry     beta=0.70
     Davidson diagonalization with overlap
     ethr =  1.00E-02,  avg # of iterations =  5.6

     Threshold (ethr) on eigenvalues was too large:
     Diagonalizing with lowered threshold

     Davidson diagonalization with overlap
     ethr =  1.70E-05,  avg # of iterations =  3.2

     total energy              =     -95.08574161 Ry
     Harris-Foulkes estimate   =     -95.08631060 Ry
     estimated scf accuracy    <       0.00152841 Ry

[...]

     End of self-consistent calculation

     Number of k-points >= 100: set verbosity='high' to print the bands.

     the Fermi energy is     4.2804 ev

!    total energy              =     -95.08597210 Ry
     Harris-Foulkes estimate   =     -95.08597210 Ry
     estimated scf accuracy    <          1.9E-09 Ry

     The total energy is the sum of the following terms:

     one-electron contribution =     -76.72057124 Ry
     hartree contribution      =      39.66545378 Ry
     xc contribution           =     -14.34240523 Ry
     ewald contribution        =     -43.68834446 Ry
     smearing contrib. (-TS)   =      -0.00010495 Ry

     convergence has been achieved in   5 iterations

     Forces acting on atoms (cartesian axes, Ry/au):

     atom    1 type  1   force =     0.00000000    0.00000000    0.00000000

     Total force =     0.000000     Total SCF correction =     0.000000

     Computing stress (Cartesian axis) and pressure

          total   stress  (Ry/bohr**3)                   (kbar)     P=   88.58
   0.00060213  -0.00000000   0.00000000         88.58     -0.00      0.00
  -0.00000000   0.00060213  -0.00000000         -0.00     88.58     -0.00
   0.00000000  -0.00000000   0.00060213          0.00     -0.00     88.58

     BFGS Geometry Optimization

     number of scf cycles    =   1
     number of bfgs steps    =   0

     enthalpy new            =     -94.9920056212 Ry

     new trust radius        =       0.0005994960 bohr
     new conv_thr            =       0.0000000100 Ry

     new unit-cell volume =    153.47685 a.u.^3 (    22.74292 Ang^3 )
     density =      1.67858 g/cm^3

CELL_PARAMETERS (alat=  6.74728954)
   0.499879066   0.499879066   0.499879066
  -0.499879066   0.499879066   0.499879066
  -0.499879066  -0.499879066   0.499879066

ATOMIC_POSITIONS (crystal)
Na       0.000000000   0.000000000   0.000000000

     Writing output data file na.bcc.save
     NEW-OLD atomic charge density approx. for the potential
     extrapolated charge    8.99347, renormalised to    9.00000

[...]

     enthalpy old            =     -94.9920056212 Ry
     enthalpy new            =     -94.9920065283 Ry

     CASE: enthalpy_new < enthalpy_old

     WARNING: bfgs curvature condition failed, Theta= 0.999
     new trust radius        =       0.0008991352 bohr
     new conv_thr            =            1.0E-10 Ry

[...]

     number of scf cycles    =   3
     number of bfgs steps    =   2

     enthalpy old            =     -94.9920065283 Ry
     enthalpy new            =     -94.9920074859 Ry

     CASE: enthalpy_new < enthalpy_old

     new trust radius        =       0.0012613283 bohr
     new conv_thr            =            1.0E-10 Ry

     new unit-cell volume =    153.07568 a.u.^3 (    22.68348 Ang^3 )
     density =      1.68298 g/cm^3

[...]

ATOMIC_POSITIONS (crystal)
Na       0.000000000   0.000000000   0.000000000

     Writing output data file na.bcc.save
     NEW-OLD atomic charge density approx. for the potential
     extrapolated charge    8.98624, renormalised to    9.00000

[...]

     bfgs converged in   4 scf cycles and   3 bfgs steps
     (criteria: energy <  1.0E-04 Ry, force <  1.0E-03Ry/Bohr, cell <  5.0E-01kbar)

     End of BFGS Geometry Optimization

     Final enthalpy =     -94.9920080133 Ry
Begin final coordinates
     new unit-cell volume =    153.07568 a.u.^3 (    22.68348 Ang^3 )
     density =      1.68298 g/cm^3

CELL_PARAMETERS (alat=  6.74728954)
   0.499443147   0.499443147   0.499443147
  -0.499443147   0.499443147   0.499443147
  -0.499443147  -0.499443147   0.499443147

ATOMIC_POSITIONS (crystal)
Na       0.000000000   0.000000000   0.000000000
End final coordinates

     A final scf calculation at the relaxed structure.
     The G-vectors are recalculated for the final unit cell
     Results may differ from those at the preceding step.

     bravais-lattice index     =            3
     lattice parameter (alat)  =       6.7473  a.u.
     unit-cell volume          =     153.0757 (a.u.)^3
     number of atoms/cell      =            1
     number of atomic types    =            1
     number of electrons       =         9.00
     number of Kohn-Sham states=            9
     kinetic-energy cutoff     =      40.0000  Ry
     charge density cutoff     =     320.0000  Ry
     convergence threshold     =      1.0E-10
     mixing beta               =       0.7000
     number of iterations used =            8  plain     mixing
     Exchange-correlation      = SLA  PW   PBE  PBE ( 1  4  3  4 0 0)

     celldm(1)=   6.747290  celldm(2)=   0.000000  celldm(3)=   0.000000
     celldm(4)=   0.000000  celldm(5)=   0.000000  celldm(6)=   0.000000

     crystal axes: (cart. coord. in units of alat)
               a(1) = (   0.499443   0.499443   0.499443 )
               a(2) = (  -0.499443   0.499443   0.499443 )
               a(3) = (  -0.499443  -0.499443   0.499443 )

     reciprocal axes: (cart. coord. in units 2 pi/alat)
               b(1) = (  1.001115 -0.000000  1.001115 )
               b(2) = ( -1.001115  1.001115 -0.000000 )
               b(3) = (  0.000000 -1.001115  1.001115 )

     PseudoPot. # 1 for Na read from file:
     /home/s1333534/quantum_espresso/qe-6.1/pseudo/Na_pbe_v1.uspp.F.UPF
     MD5 check sum: 76a99c7e9422403d3e93cbc85ab7bccb
     Pseudo is Ultrasoft, Zval =  9.0
     Generated by new atomic code, or converted to UPF format
     Using radial grid of  819 points,  5 beta functions with:
                l(1) =   0
                l(2) =   0
                l(3) =   1
                l(4) =   1
                l(5) =   2
     Q(r) pseudized with  8 coefficients,  rinner =    1.250   1.250   1.250
                                                       1.250   1.250

     atomic species   valence    mass     pseudopotential
        Na             9.00    22.99000     Na( 1.00)

     48 Sym. Ops., with inversion, found

   Cartesian axes

     site n.     atom                  positions (alat units)
         1           Na  tau(   1) = (   0.0000000   0.0000000   0.0000000  )

     number of k points=   250  Marzari-Vanderbilt smearing, width (Ry)=  0.0200

     Number of k-points >= 100: set verbosity='high' to print them.

     Initial potential from superposition of free atoms

     starting charge    8.99371, renormalised to    9.00000
     Starting wfc are    5 randomized atomic wfcs +    4 random wfc

     Writing output data file na.bcc.save

     Self-consistent Calculation

[...]

     total energy              =     -95.08564650 Ry
     Harris-Foulkes estimate   =     -95.08564650 Ry
     estimated scf accuracy    <          1.5E-10 Ry

     iteration #  7     ecut=    40.00 Ry     beta=0.70
     Davidson diagonalization with overlap
     ethr =  1.68E-12,  avg # of iterations =  2.0

     End of self-consistent calculation

     Number of k-points >= 100: set verbosity='high' to print the bands.

     the Fermi energy is     4.3041 ev

!    total energy              =     -95.08564650 Ry
     Harris-Foulkes estimate   =     -95.08564650 Ry
     estimated scf accuracy    <          2.9E-12 Ry

     The total energy is the sum of the following terms:

     one-electron contribution =     -76.63653497 Ry
     hartree contribution      =      39.63106511 Ry
     xc contribution           =     -14.34301705 Ry
     ewald contribution        =     -43.73705471 Ry
     smearing contrib. (-TS)   =      -0.00010489 Ry

     convergence has been achieved in   7 iterations

     Forces acting on atoms (cartesian axes, Ry/au):

     atom    1 type  1   force =     0.00000000    0.00000000    0.00000000

     Total force =     0.000000     Total SCF correction =     0.000000

     Computing stress (Cartesian axis) and pressure

          total   stress  (Ry/bohr**3)                   (kbar)     P=   89.87
   0.00061092  -0.00000000   0.00000000         89.87     -0.00      0.00
  -0.00000000   0.00061092  -0.00000000         -0.00     89.87     -0.00
   0.00000000  -0.00000000   0.00061092          0.00     -0.00     89.87

     Writing output data file na.bcc.save

     General routines

     Parallel routines

   This run was terminated on:  17: 3:46  20Dec2017

   JOB DONE.