     Program PHONON v.5.4.0 starts on 26Mar2018 at 12: 8:44

     Reading data from directory:
     ./na_hcp/na_hcp.save

   Info: using nr1, nr2, nr3 values from input

[...]

     IMPORTANT: XC functional enforced from input :
     Exchange-correlation      = SLA  PW   PBE  PBE ( 1  4  3  4 0 0)
     Any further DFT definition will be discarded
     Please, verify this is what you really want

     Dynamical matrices for ( 4, 4, 4)  uniform grid of q-points
     (  12q-points):
       N         xq(1)         xq(2)         xq(3)
       1   0.000000000   0.000000000   0.000000000
       2   0.000000000   0.000000000   0.153330962
       3   0.000000000   0.000000000  -0.306661924
       4   0.000000000   0.288675135   0.000000000
       5   0.000000000   0.288675135   0.153330962
       6   0.000000000   0.288675135  -0.306661924
       7   0.000000000  -0.577350269   0.000000000
       8   0.000000000  -0.577350269   0.153330962
       9   0.000000000  -0.577350269  -0.306661924
      10   0.250000000   0.433012702   0.000000000
      11   0.250000000   0.433012702   0.153330962
      12   0.250000000   0.433012702  -0.306661924

     Calculation of q =    0.0000000   0.0000000   0.0000000

     bravais-lattice index     =            4
     lattice parameter (alat)  =       6.9939  a.u.
     unit-cell volume          =     483.0474 (a.u.)^3
     number of atoms/cell      =            2
     number of atomic types    =            1
     kinetic-energy cut-off    =      40.0000  Ry
     charge density cut-off    =     320.0000  Ry
     convergence threshold     =      1.0E-15
     beta                      =       0.7000
     number of iterations used =            4
     Exchange-correlation      = SLA  PW   PBE  PBE ( 1  4  3  4 0 0)

     celldm(1)=    6.99385  celldm(2)=    0.00000  celldm(3)=    1.63046
     celldm(4)=    0.00000  celldm(5)=    0.00000  celldm(6)=    0.00000

     crystal axes: (cart. coord. in units of alat)
               a(1) = (  1.0000  0.0000  0.0000 )
               a(2) = ( -0.5000  0.8660  0.0000 )
               a(3) = (  0.0000  0.0000  1.6305 )

     reciprocal axes: (cart. coord. in units 2 pi/alat)
               b(1) = (  1.0000  0.5774  0.0000 )
               b(2) = (  0.0000  1.1547  0.0000 )
               b(3) = (  0.0000  0.0000  0.6133 )

     Atoms inside the unit cell:

     Cartesian axes

     site n.  atom      mass           positions (alat units)
        1     Na  22.9900   tau(    1) = (    0.00000    0.00000    0.00000  )
        2     Na  22.9900   tau(    2) = (    0.50000    0.28868    0.81523  )

     Computing dynamical matrix for
                    q = (   0.0000000   0.0000000   0.0000000 )

     13 Sym.Ops. (with q -> -q+G )

     G cutoff =  396.4814  (   5844 G-vectors)     FFT grid: ( 40, 40, 72)
     G cutoff =  198.2407  (   2066 G-vectors)  smooth grid: ( 30, 30, 45)

     number of k points=   366  Marzari-Vanderbilt smearing, width (Ry)=  0.0200

     PseudoPot. # 1 for Na read from file:
     ./Na_pbe_v1.uspp.F.UPF
     MD5 check sum: 76a99c7e9422403d3e93cbc85ab7bccb
     Pseudo is Ultrasoft, Zval =  9.0
     Generated by new atomic code, or converted to UPF format
     Using radial grid of  819 points,  5 beta functions with:
                l(1) =   0
                l(2) =   0
                l(3) =   1
                l(4) =   1
                l(5) =   2
     Q(r) pseudized with  8 coefficients,  rinner =    1.250   1.250   1.250
                                                       1.250   1.250

     Mode symmetry, D_3h (-62m) point group:

     Atomic displacements:
     There are   4 irreducible representations

     Representation     1      2 modes -E'  To be done

[...]

     Representation     3      1 modes -A''2  To be done

[...]

     Alpha used in Ewald sum =   2.8000

     Representation #  1 modes #   1  2

     Self-consistent Calculation

     Pert. #  1: Fermi energy shift (Ry) =     0.0000E+00     0.0000E+00
     Pert. #  2: Fermi energy shift (Ry) =    -7.2280E-20     0.0000E+00

      thresh= 1.000E-02 alpha_mix =  0.700 |ddv_scf|^2 =  9.408E-07

[...]

     End of self-consistent calculation

     Convergence has been achieved

[...]

     Representation #  3 mode #   5

[...]

     Pert. #  1: Fermi energy shift (Ry) =     0.0000E+00     0.0000E+00

[...]

     Number of q in the star =    1
     List of q in the star:
          1   0.000000000   0.000000000   0.000000000

     Diagonalizing the dynamical matrix

     q = (    0.000000000   0.000000000   0.000000000 )

     freq (    1) =      -0.553423 [THz] =     -18.460197 [cm-1]
     freq (    2) =      -0.553423 [THz] =     -18.460197 [cm-1]
     freq (    3) =       0.585034 [THz] =      19.514650 [cm-1]
     freq (    4) =       1.689165 [THz] =      56.344472 [cm-1]
     freq (    5) =       1.689165 [THz] =      56.344472 [cm-1]
     freq (    6) =       4.045045 [THz] =     134.928162 [cm-1]

[...]

     freq (  1 -  2) =        -18.5  [cm-1]   --> E'              I+R
     freq (  3 -  3) =         19.5  [cm-1]   --> A''2            I
     freq (  4 -  5) =         56.3  [cm-1]   --> E'              I+R
     freq (  6 -  6) =        134.9  [cm-1]   --> A''2            I

[...]

     bravais-lattice index     =            4
     lattice parameter (alat)  =       6.9939  a.u.
     unit-cell volume          =     483.0474 (a.u.)^3
     number of atoms/cell      =            2
     number of atomic types    =            1
     number of electrons       =        18.00
     number of Kohn-Sham states=           13
     kinetic-energy cutoff     =      40.0000  Ry
     charge density cutoff     =     320.0000  Ry
     Exchange-correlation      = SLA  PW   PBE  PBE ( 1  4  3  4 0 0)

[...]

     atomic species   valence    mass     pseudopotential
        Na             9.00    22.99000     Na( 1.00)

     12 Sym. Ops. (no inversion) found

[...]

     site n.     atom                  positions (alat units)
         1           Na  tau(   1) = (   0.0000000   0.0000000   0.0000000  )
         2           Na  tau(   2) = (   0.5000000   0.2886751   0.8152300  )

[...]

     Number of k-points >= 100: set verbosity='high' to print them.

     Largest allocated arrays     est. size (Mb)     dimensions
     Largest temporary arrays     est. size (Mb)     dimensions

     The potential is recalculated from file :
     ./na_hcp/_ph0/na_hcp.save/charge-density.dat

     Starting wfc are   10 atomic +    3 random wfc

     Band Structure Calculation
     Davidson diagonalization with overlap

     ethr =  5.56E-11,  avg # of iterations = 23.2

     End of band structure calculation

     Number of k-points >= 100: set verbosity='high' to print the bands.

     the Fermi energy is     1.7529 ev

     Writing output data file na_hcp.save

[...]

      6 Sym.Ops. (no q -> -q+G )

[...]

     Mode symmetry, C_3v (3m)   point group:

[...]

     Representation     1      1 modes -A_1  L_1  To be done

     Representation     2      1 modes -A_1  L_1  To be done

     Representation     3      2 modes -E    L_3  To be done

     Representation     4      2 modes -E    L_3  To be done

[...]

     Mode symmetry, C_3v (3m)   point group:

     freq (  1 -  2) =         13.7  [cm-1]   --> E    L_3
     freq (  3 -  4) =         52.2  [cm-1]   --> E    L_3
     freq (  5 -  5) =         55.1  [cm-1]   --> A_1  L_1
     freq (  6 -  6) =        126.8  [cm-1]   --> A_1  L_1

[...]

     Representation     1      1 modes -A'_1  To be done

[...]

     Representation     3      1 modes -A''2  To be done

     Representation     4      2 modes -E''  To be done

[...]

     Representation #  4 modes #   5  6

[...]

     Mode symmetry, D_3h (-62m) point group:

     freq (  1 -  2) =         37.6  [cm-1]   --> E'
     freq (  3 -  4) =         38.7  [cm-1]   --> E''
     freq (  5 -  5) =         99.2  [cm-1]   --> A'_1
     freq (  6 -  6) =         99.2  [cm-1]   --> A''2

[...]

     Mode symmetry, C_2v (mm2)  point group:

[...]

     Representation     1      1 modes -A_1  D_1  S_1  To be done

[...]

     Number of q in the star =    3
     List of q in the star:
          1   0.000000000   0.288675135   0.000000000
          2   0.250000000  -0.144337567   0.000000000
          3  -0.250000000  -0.144337567   0.000000000
     In addition there is the -q list:
          1   0.000000000  -0.288675135   0.000000000
          2  -0.250000000   0.144337567   0.000000000
          3   0.250000000   0.144337567   0.000000000

[...]

     freq (  1 -  1) =         38.8  [cm-1]   --> B_1  D_3  S_3
     freq (  2 -  2) =         48.4  [cm-1]   --> B_2  D_4  S_4
     freq (  3 -  3) =         81.3  [cm-1]   --> B_1  D_3  S_3
     freq (  4 -  4) =         86.7  [cm-1]   --> A_1  D_1  S_1
     freq (  5 -  5) =        106.0  [cm-1]   --> A_1  D_1  S_1
     freq (  6 -  6) =        126.8  [cm-1]   --> B_2  D_4  S_4

[...]

     Mode symmetry, C_s (m)     point group:

[...]

      thresh= 6.872E-04 alpha_mix =  0.700 |ddv_scf|^2 =  5.646E-04
Application 30363954 exit codes: 1
Application 30363954 resources: utime ~8051s, stime ~97s, Rss ~42492, inblocks ~40718071, outblocks ~15901495

     Program PHONON v.5.4.0 starts on 26Mar2018 at 12:31: 0

[...]

     freq (  1 -  1) =         47.2  [cm-1]   --> A''
     freq (  2 -  2) =         55.7  [cm-1]   --> A'
     freq (  3 -  3) =         76.8  [cm-1]   --> A''
     freq (  4 -  4) =         95.2  [cm-1]   --> A'
     freq (  5 -  5) =         99.1  [cm-1]   --> A'
     freq (  6 -  6) =        123.7  [cm-1]   --> A'

[...]

     Program PHONON v.5.4.0 starts on 26Mar2018 at 12:54:55

[...]

     Number of q in the star =    3
     List of q in the star:
          1   0.000000000   0.288675135  -0.306661924
          2   0.250000000  -0.144337567  -0.306661924
          3  -0.250000000  -0.144337567  -0.306661924
     In addition there is the -q list:
          1   0.000000000  -0.288675135   0.306661924
          2  -0.250000000   0.144337567   0.306661924
          3   0.250000000   0.144337567   0.306661924

[...]

      5 Sym.Ops. (with q -> -q+G )

[...]

     Representation     6      1 modes -B_2  D_4  S_4  To be done

[...]

     Mode symmetry, C_2v (mm2)  point group:

     freq (  1 -  1) =         79.9  [cm-1]   --> B_1  D_3  S_3
     freq (  2 -  2) =         80.4  [cm-1]   --> A_2  D_2  S_2
     freq (  3 -  3) =         82.4  [cm-1]   --> A_1  D_1  S_1
     freq (  4 -  4) =         82.5  [cm-1]   --> B_2  D_4  S_4
     freq (  5 -  5) =        137.1  [cm-1]   --> A_1  D_1  S_1
     freq (  6 -  6) =        137.3  [cm-1]   --> B_2  D_4  S_4

[...]

     freq (  1 -  1) =         78.1  [cm-1]   --> A''
     freq (  2 -  2) =         86.9  [cm-1]   --> A'
     freq (  3 -  3) =         97.9  [cm-1]   --> A'
     freq (  4 -  4) =        111.6  [cm-1]   --> A''
     freq (  5 -  5) =        120.5  [cm-1]   --> A'
     freq (  6 -  6) =        121.7  [cm-1]   --> A'

[...]

     No symmetry!

[...]

     Mode symmetry, C_1 (1)     point group:

[...]

     Representation     1      1 modes -A  To be done

[...]

     Reading data from directory:
     ./na_hcp/na_hcp.save

[...]

     Dynamical matrices for ( 4, 4, 4)  uniform grid of q-points
     (  12q-points):
       N         xq(1)         xq(2)         xq(3)
       1   0.000000000   0.000000000   0.000000000
       2   0.000000000   0.000000000   0.153330962
       3   0.000000000   0.000000000  -0.306661924
       4   0.000000000   0.288675135   0.000000000
       5   0.000000000   0.288675135   0.153330962
       6   0.000000000   0.288675135  -0.306661924
       7   0.000000000  -0.577350269   0.000000000
       8   0.000000000  -0.577350269   0.153330962
       9   0.000000000  -0.577350269  -0.306661924
      10   0.250000000   0.433012702   0.000000000
      11   0.250000000   0.433012702   0.153330962
      12   0.250000000   0.433012702  -0.306661924

[...]

     Program PHONON v.5.4.0 starts on 26Mar2018 at 14:13:28

     Reading data from directory:
     ./na_hcp/_ph0/na_hcp.save

[...]

        2 /  12 q-points for this run, from 11 to 12:
       N       xq(1)         xq(2)         xq(3)
       1   0.000000000   0.000000000   0.000000000
       2   0.000000000   0.000000000   0.153330962
       3   0.000000000   0.000000000  -0.306661924
       4   0.000000000   0.288675135   0.000000000
       5   0.000000000   0.288675135   0.153330962
       6   0.000000000   0.288675135  -0.306661924
       7   0.000000000  -0.577350269   0.000000000
       8   0.000000000  -0.577350269   0.153330962
       9   0.000000000  -0.577350269  -0.306661924
      10   0.250000000   0.433012702   0.000000000
      11   0.250000000   0.433012702   0.153330962
      12   0.250000000   0.433012702  -0.306661924

[...]

     Bands found: reading from ./na_hcp/_ph0/

[...]

     Restart in Phonon calculation

[...]

     No symmetry!

[...]

     Representation     1      1 modes -A  Done

[...]

     Representation     4      1 modes -A  Done

[...]

     Representation     6      1 modes -A  To be done

[...]

     Mode symmetry, C_1 (1)     point group:

     freq (  1 -  1) =         66.7  [cm-1]   --> A
     freq (  2 -  2) =         83.8  [cm-1]   --> A
     freq (  3 -  3) =        103.1  [cm-1]   --> A
     freq (  4 -  4) =        104.7  [cm-1]   --> A
     freq (  5 -  5) =        122.9  [cm-1]   --> A
     freq (  6 -  6) =        128.3  [cm-1]   --> A

[...]

     bravais-lattice index     =            4
     lattice parameter (alat)  =       6.9939  a.u.
     unit-cell volume          =     483.0474 (a.u.)^3
     number of atoms/cell      =            2
     number of atomic types    =            1
     number of electrons       =        18.00
     number of Kohn-Sham states=           13
     kinetic-energy cutoff     =      40.0000  Ry
     charge density cutoff     =     320.0000  Ry
     Exchange-correlation      = SLA  PW   PBE  PBE ( 1  4  3  4 0 0)

[...]

     atomic species   valence    mass     pseudopotential
        Na             9.00    22.99000     Na( 1.00)

     12 Sym. Ops. (no inversion) found

[...]

     site n.     atom                  positions (alat units)
         1           Na  tau(   1) = (   0.0000000   0.0000000   0.0000000  )
         2           Na  tau(   2) = (   0.5000000   0.2886751   0.8152300  )

[...]

     Number of k-points >= 100: set verbosity='high' to print them.

     Largest allocated arrays     est. size (Mb)     dimensions
     Largest temporary arrays     est. size (Mb)     dimensions

     The potential is recalculated from file :
     ./na_hcp/_ph0/na_hcp.save/charge-density.dat

     Starting wfc are   10 atomic +    3 random wfc

     Band Structure Calculation
     Davidson diagonalization with overlap

     ethr =  5.56E-11,  avg # of iterations = 22.4

     End of band structure calculation

     Number of k-points >= 100: set verbosity='high' to print the bands.

     the Fermi energy is     1.7529 ev

     Writing output data file na_hcp.save

[...]

     Representation     3      1 modes -A'  To be done

[...]

     Alpha used in Ewald sum =   2.8000

[...]

      thresh= 2.656E-08 alpha_mix =  0.700 |ddv_scf|^2 =  4.268E-15
Application 30365104 exit codes: 1
Application 30365104 resources: utime ~8966s, stime ~95s, Rss ~46892, inblocks ~39541988, outblocks ~12732140

     Program PHONON v.5.4.0 starts on 26Mar2018 at 14:38: 7

[...]

        1 /  12 q-points for this run, from 12 to 12:
       N       xq(1)         xq(2)         xq(3)
       1   0.000000000   0.000000000   0.000000000
       2   0.000000000   0.000000000   0.153330962
       3   0.000000000   0.000000000  -0.306661924
       4   0.000000000   0.288675135   0.000000000
       5   0.000000000   0.288675135   0.153330962
       6   0.000000000   0.288675135  -0.306661924
       7   0.000000000  -0.577350269   0.000000000
       8   0.000000000  -0.577350269   0.153330962
       9   0.000000000  -0.577350269  -0.306661924
      10   0.250000000   0.433012702   0.000000000
      11   0.250000000   0.433012702   0.153330962
      12   0.250000000   0.433012702  -0.306661924

     Calculation of q =    0.2500000   0.4330127  -0.3066619

     Bands found: reading from ./na_hcp/_ph0/

     Reading data from directory:
     ./na_hcp/_ph0/na_hcp.save

[...]

   Info: using nr1, nr2, nr3 values from input

     IMPORTANT: XC functional enforced from input :
     Exchange-correlation      = SLA  PW   PBE  PBE ( 1  4  3  4 0 0)
     Any further DFT definition will be discarded
     Please, verify this is what you really want

     Restart in Phonon calculation

     bravais-lattice index     =            4
     lattice parameter (alat)  =       6.9939  a.u.
     unit-cell volume          =     483.0474 (a.u.)^3
     number of atoms/cell      =            2
     number of atomic types    =            1
     kinetic-energy cut-off    =      40.0000  Ry
     charge density cut-off    =     320.0000  Ry
     convergence threshold     =      1.0E-15
     beta                      =       0.7000
     number of iterations used =            4
     Exchange-correlation      = SLA  PW   PBE  PBE ( 1  4  3  4 0 0)

     celldm(1)=    6.99385  celldm(2)=    0.00000  celldm(3)=    1.63046
     celldm(4)=    0.00000  celldm(5)=    0.00000  celldm(6)=    0.00000

     crystal axes: (cart. coord. in units of alat)
               a(1) = (  1.0000  0.0000  0.0000 )
               a(2) = ( -0.5000  0.8660  0.0000 )
               a(3) = (  0.0000  0.0000  1.6305 )

     reciprocal axes: (cart. coord. in units 2 pi/alat)
               b(1) = (  1.0000  0.5774  0.0000 )
               b(2) = (  0.0000  1.1547  0.0000 )
               b(3) = (  0.0000  0.0000  0.6133 )

     Atoms inside the unit cell:

     Cartesian axes

     site n.  atom      mass           positions (alat units)
        1     Na  22.9900   tau(    1) = (    0.00000    0.00000    0.00000  )
        2     Na  22.9900   tau(    2) = (    0.50000    0.28868    0.81523  )

     Computing dynamical matrix for
                    q = (   0.2500000   0.4330127  -0.3066619 )

      2 Sym.Ops. (no q -> -q+G )

     G cutoff =  396.4814  (   5844 G-vectors)     FFT grid: ( 40, 40, 72)
     G cutoff =  198.2407  (   2064 G-vectors)  smooth grid: ( 30, 30, 45)

     number of k points=  6912  Marzari-Vanderbilt smearing, width (Ry)=  0.0200

     PseudoPot. # 1 for Na read from file:
     ./Na_pbe_v1.uspp.F.UPF
     MD5 check sum: 76a99c7e9422403d3e93cbc85ab7bccb
     Pseudo is Ultrasoft, Zval =  9.0
     Generated by new atomic code, or converted to UPF format
     Using radial grid of  819 points,  5 beta functions with:
                l(1) =   0
                l(2) =   0
                l(3) =   1
                l(4) =   1
                l(5) =   2
     Q(r) pseudized with  8 coefficients,  rinner =    1.250   1.250   1.250
                                                       1.250   1.250

[...]

     Atomic displacements:
     There are   6 irreducible representations

     Representation     1      1 modes -A'  Done

[...]

     Representation     3      1 modes -A'  Done

     Representation     4      1 modes -A''  Done

[...]

     Representation     6      1 modes -A''  To be done

[...]

     Representation #  6 mode #   6

     Self-consistent Calculation

[...]

      thresh= 3.252E-09 alpha_mix =  0.700 |ddv_scf|^2 =  1.031E-16

     End of self-consistent calculation

     Convergence has been achieved

     Number of q in the star =    6
     List of q in the star:
          1   0.250000000   0.433012702  -0.306661924
          2  -0.250000000   0.433012702  -0.306661924
          3   0.500000000  -0.000000000  -0.306661924
          4  -0.250000000  -0.433012702  -0.306661924
          5   0.250000000  -0.433012702  -0.306661924
          6  -0.500000000   0.000000000  -0.306661924

     Diagonalizing the dynamical matrix

     q = (    0.250000000   0.433012702  -0.306661924 )

     freq (    1) =       2.070121 [THz] =      69.051804 [cm-1]
     freq (    2) =       2.077070 [THz] =      69.283602 [cm-1]
     freq (    3) =       3.107759 [THz] =     103.663678 [cm-1]
     freq (    4) =       3.114896 [THz] =     103.901733 [cm-1]
     freq (    5) =       3.852207 [THz] =     128.495805 [cm-1]
     freq (    6) =       3.859606 [THz] =     128.742591 [cm-1]

     Mode symmetry, C_s (m)     point group:

     freq (  1 -  1) =         69.1  [cm-1]   --> A'
     freq (  2 -  2) =         69.3  [cm-1]   --> A''
     freq (  3 -  3) =        103.7  [cm-1]   --> A'
     freq (  4 -  4) =        103.9  [cm-1]   --> A''
     freq (  5 -  5) =        128.5  [cm-1]   --> A'
     freq (  6 -  6) =        128.7  [cm-1]   --> A''

     INITIALIZATION:

     DYNAMICAL MATRIX:

      General routines

   This run was terminated on:  14:42:41  26Mar2018

   JOB DONE.
Application 30365407 resources: utime ~50425s, stime ~337s, Rss ~36372, inblocks ~139402738, outblocks ~39414761