     Program PHONON v.6.1 (svn rev. 13369) starts on  7Mar2018 at 15:22:18

     Reading data from directory:
     ./tmp/na.9r.0.save

   Info: using nr1, nr2, nr3 values from input

[...]

     IMPORTANT: XC functional enforced from input :
     Exchange-correlation      = SLA  PW   PBE  PBE ( 1  4  3  4 0 0)
     Any further DFT definition will be discarded
     Please, verify this is what you really want

     Dynamical matrices for ( 4, 4, 4)  uniform grid of q-points
     (  13q-points):
       N         xq(1)         xq(2)         xq(3)
       1   0.000000000   0.000000000   0.000000000
       2   0.334448762   0.334448762  -0.525613338
       3  -0.668897523  -0.668897523   1.051226676
       4   0.668897523  -0.191164576  -0.191164576
       5  -0.334448762  -1.194510861   1.385675437
       6   0.000000000  -0.860062100   0.860062100
       7  -1.337795047   0.382329152   0.382329152
       8   0.143284186   0.143284186   0.143284186
       9  -0.860062100  -0.860062100   1.720124199
      10  -0.525613338  -0.525613338   1.194510861
      11  -1.863408385   0.716777914   0.716777914
      12  -1.528959623   1.051226676   0.191164576
      13  -0.286568371  -0.286568371  -0.286568371

     Calculation of q =   -0.3344488  -1.1945109   1.3856754

[...]

     bravais-lattice index     =            0
     lattice parameter (alat)  =      17.0000  a.u.
     unit-cell volume          =     724.2840 (a.u.)^3
     number of atoms/cell      =            3
     number of atomic types    =            1
     number of electrons       =        27.00
     number of Kohn-Sham states=           18
     kinetic-energy cutoff     =      40.0000  Ry
     charge density cutoff     =     320.0000  Ry
     Exchange-correlation      = SLA  PW   PBE  PBE ( 1  4  3  4 0 0)

     celldm(1)=  17.000000  celldm(2)=   0.000000  celldm(3)=   0.000000
     celldm(4)=   0.000000  celldm(5)=   0.000000  celldm(6)=   0.000000

     crystal axes: (cart. coord. in units of alat)
               a(1) = (   0.387810   0.678487   0.678487 )
               a(2) = (   0.678487   0.387810   0.678487 )
               a(3) = (   0.678487   0.678487   0.387810 )

     reciprocal axes: (cart. coord. in units 2 pi/alat)
               b(1) = ( -2.102453  1.337795  1.337795 )
               b(2) = (  1.337795 -2.102453  1.337795 )
               b(3) = (  1.337795  1.337795 -2.102453 )

     PseudoPot. # 1 for Na read from file:
     ./Na_pbe_v1.uspp.F.UPF
     MD5 check sum: 76a99c7e9422403d3e93cbc85ab7bccb
     Pseudo is Ultrasoft, Zval =  9.0
     Generated by new atomic code, or converted to UPF format
     Using radial grid of  819 points,  5 beta functions with:
                l(1) =   0
                l(2) =   0
                l(3) =   1
                l(4) =   1
                l(5) =   2
     Q(r) pseudized with  8 coefficients,  rinner =    1.250   1.250   1.250
                                                       1.250   1.250

     atomic species   valence    mass     pseudopotential
        Na             9.00    22.99000     Na( 1.00)

     12 Sym. Ops., with inversion, found

   Cartesian axes

     site n.     atom                  positions (alat units)
         1           Na  tau(   1) = (   1.2601225   1.2601225   1.2601225  )
         2           Na  tau(   2) = (   0.4846618   0.4846618   0.4846618  )
         3           Na  tau(   3) = (   0.8723922   0.8723922   0.8723922  )

     number of k points= 16000  Marzari-Vanderbilt smearing, width (Ry)=  0.0200

     Number of k-points >= 100: set verbosity='high' to print them.

     The potential is recalculated from file :
     ./tmp/_ph0/na.9r.0.save/charge-density.dat

     Starting wfc are   15 atomic +    3 random wfc

     Band Structure Calculation
     Davidson diagonalization with overlap

     ethr =  3.70E-11,  avg # of iterations = 24.7

     End of band structure calculation

     Number of k-points >= 100: set verbosity='high' to print the bands.

     the Fermi energy is     1.7558 ev

     bravais-lattice index     =            0
     lattice parameter (alat)  =      17.0000  a.u.
     unit-cell volume          =     724.2840 (a.u.)^3
     number of atoms/cell      =            3
     number of atomic types    =            1
     kinetic-energy cut-off    =      40.0000  Ry
     charge density cut-off    =     320.0000  Ry
     convergence threshold     =      1.0E-16
     beta                      =       0.7000
     number of iterations used =            4
     Exchange-correlation      = SLA  PW   PBE  PBE ( 1  4  3  4 0 0)

[...]

     Atoms inside the unit cell:

[...]

     site n.  atom      mass           positions (alat units)
        1     Na  22.9900   tau(    1) = (    1.26012    1.26012    1.26012  )
        2     Na  22.9900   tau(    2) = (    0.48466    0.48466    0.48466  )
        3     Na  22.9900   tau(    3) = (    0.87239    0.87239    0.87239  )

     Computing dynamical matrix for
                    q = (  -0.3344488  -1.1945109   1.3856754 )

     No symmetry!

     G cutoff = 2342.5458  (  17455 G-vectors)     FFT grid: (108,108,108)
     G cutoff = 1171.2729  (   6186 G-vectors)  smooth grid: ( 72, 72, 72)

[...]

     Mode symmetry, C_1 (1)     point group:

     Atomic displacements:
     There are   9 irreducible representations

     Representation     1      1 modes -A  To be done

[...]

     Alpha used in Ewald sum =   2.8000

     Representation #  1 mode #   1

     Self-consistent Calculation

      thresh= 1.000E-02 alpha_mix =  0.700 |ddv_scf|^2 =  8.989E-07

[...]

     Program stopped by user request

     INITIALIZATION:

     DYNAMICAL MATRIX:

      General routines

   This run was terminated on:  15:34:13   7Mar2018

   JOB DONE.
Application 30213021 exit codes: 1
Application 30213021 resources: utime ~137114s, stime ~580s, Rss ~395508, inblocks ~32232535, outblocks ~114197054

     Program PHONON v.6.1 (svn rev. 13369) starts on  7Mar2018 at 18:36:25

[...]

        1 /  13 q-points for this run, from  5 to  5:
       N       xq(1)         xq(2)         xq(3)
       1   0.000000000   0.000000000   0.000000000
       2   0.334448762   0.334448762  -0.525613338
       3  -0.668897523  -0.668897523   1.051226676
       4   0.668897523  -0.191164576  -0.191164576
       5  -0.334448762  -1.194510861   1.385675437
       6   0.000000000  -0.860062100   0.860062100
       7  -1.337795047   0.382329152   0.382329152
       8   0.143284186   0.143284186   0.143284186
       9  -0.860062100  -0.860062100   1.720124199
      10  -0.525613338  -0.525613338   1.194510861
      11  -1.863408385   0.716777914   0.716777914
      12  -1.528959623   1.051226676   0.191164576
      13  -0.286568371  -0.286568371  -0.286568371

[...]

     Restart in Phonon calculation

[...]

     End of self-consistent calculation

     Convergence has been achieved

[...]

     Program stopped by user request

[...]

   This run was terminated on:  21:37:14   7Mar2018

   JOB DONE.

     Program PHONON v.6.1 (svn rev. 13369) starts on  7Mar2018 at 22: 5:42

     Reading data from directory:
     ./tmp/na.9r.0.save

[...]

     IMPORTANT: XC functional enforced from input :
     Exchange-correlation      = SLA  PW   PBE  PBE ( 1  4  3  4 0 0)
     Any further DFT definition will be discarded
     Please, verify this is what you really want

        1 /  13 q-points for this run, from  5 to  5:
       N       xq(1)         xq(2)         xq(3)
       1   0.000000000   0.000000000   0.000000000
       2   0.334448762   0.334448762  -0.525613338
       3  -0.668897523  -0.668897523   1.051226676
       4   0.668897523  -0.191164576  -0.191164576
       5  -0.334448762  -1.194510861   1.385675437
       6   0.000000000  -0.860062100   0.860062100
       7  -1.337795047   0.382329152   0.382329152
       8   0.143284186   0.143284186   0.143284186
       9  -0.860062100  -0.860062100   1.720124199
      10  -0.525613338  -0.525613338   1.194510861
      11  -1.863408385   0.716777914   0.716777914
      12  -1.528959623   1.051226676   0.191164576
      13  -0.286568371  -0.286568371  -0.286568371

     Calculation of q =   -0.3344488  -1.1945109   1.3856754

[...]

   Info: using nr1, nr2, nr3 values from input

     bravais-lattice index     =            0
     lattice parameter (alat)  =      17.0000  a.u.
     unit-cell volume          =     724.2840 (a.u.)^3
     number of atoms/cell      =            3
     number of atomic types    =            1
     number of electrons       =        27.00
     number of Kohn-Sham states=           18
     kinetic-energy cutoff     =      40.0000  Ry
     charge density cutoff     =     320.0000  Ry
     Exchange-correlation      = SLA  PW   PBE  PBE ( 1  4  3  4 0 0)

[...]

     atomic species   valence    mass     pseudopotential
        Na             9.00    22.99000     Na( 1.00)

     12 Sym. Ops., with inversion, found

[...]

     site n.     atom                  positions (alat units)
         1           Na  tau(   1) = (   1.2601225   1.2601225   1.2601225  )
         2           Na  tau(   2) = (   0.4846618   0.4846618   0.4846618  )
         3           Na  tau(   3) = (   0.8723922   0.8723922   0.8723922  )

[...]

     Number of k-points >= 100: set verbosity='high' to print them.

     The potential is recalculated from file :
     ./tmp/_ph0/na.9r.0.save/charge-density.dat

     Starting wfc are   15 atomic +    3 random wfc

     Band Structure Calculation
     Davidson diagonalization with overlap

     ethr =  3.70E-11,  avg # of iterations = 24.7

     End of band structure calculation

     Number of k-points >= 100: set verbosity='high' to print the bands.

     the Fermi energy is     1.7558 ev

     Restart in Phonon calculation

     bravais-lattice index     =            0
     lattice parameter (alat)  =      17.0000  a.u.
     unit-cell volume          =     724.2840 (a.u.)^3
     number of atoms/cell      =            3
     number of atomic types    =            1
     kinetic-energy cut-off    =      40.0000  Ry
     charge density cut-off    =     320.0000  Ry
     convergence threshold     =      1.0E-16
     beta                      =       0.7000
     number of iterations used =            4
     Exchange-correlation      = SLA  PW   PBE  PBE ( 1  4  3  4 0 0)

     celldm(1)=   17.00000  celldm(2)=    0.00000  celldm(3)=    0.00000
     celldm(4)=    0.00000  celldm(5)=    0.00000  celldm(6)=    0.00000

     crystal axes: (cart. coord. in units of alat)
               a(1) = (  0.3878  0.6785  0.6785 )
               a(2) = (  0.6785  0.3878  0.6785 )
               a(3) = (  0.6785  0.6785  0.3878 )

     reciprocal axes: (cart. coord. in units 2 pi/alat)
               b(1) = ( -2.1025  1.3378  1.3378 )
               b(2) = (  1.3378 -2.1025  1.3378 )
               b(3) = (  1.3378  1.3378 -2.1025 )

     Atoms inside the unit cell:

     Cartesian axes

     site n.  atom      mass           positions (alat units)
        1     Na  22.9900   tau(    1) = (    1.26012    1.26012    1.26012  )
        2     Na  22.9900   tau(    2) = (    0.48466    0.48466    0.48466  )
        3     Na  22.9900   tau(    3) = (    0.87239    0.87239    0.87239  )

     Computing dynamical matrix for
                    q = (  -0.3344488  -1.1945109   1.3856754 )

     No symmetry!

     G cutoff = 2342.5458  (  17455 G-vectors)     FFT grid: (108,108,108)
     G cutoff = 1171.2729  (   6186 G-vectors)  smooth grid: ( 72, 72, 72)

     number of k points= 16000  Marzari-Vanderbilt smearing, width (Ry)=  0.0200

     PseudoPot. # 1 for Na read from file:
     ./Na_pbe_v1.uspp.F.UPF
     MD5 check sum: 76a99c7e9422403d3e93cbc85ab7bccb
     Pseudo is Ultrasoft, Zval =  9.0
     Generated by new atomic code, or converted to UPF format
     Using radial grid of  819 points,  5 beta functions with:
                l(1) =   0
                l(2) =   0
                l(3) =   1
                l(4) =   1
                l(5) =   2
     Q(r) pseudized with  8 coefficients,  rinner =    1.250   1.250   1.250
                                                       1.250   1.250

[...]

     Atomic displacements:
     There are   9 irreducible representations

     Representation     1      1 modes -A  Done

[...]

     Representation     6      1 modes -A  Done

[...]

     Representation     9      1 modes -A  To be done

[...]

     Representation #  9 mode #   9

     Self-consistent Calculation

[...]

      thresh= 2.120E-09 alpha_mix =  0.700 |ddv_scf|^2 =  4.720E-17

     End of self-consistent calculation

     Convergence has been achieved

     Number of q in the star =   12
     List of q in the star:
          1  -0.334448762  -1.194510861   1.385675437
          2   1.194510861   0.334448762  -1.385675437
          3  -1.385675437   1.194510861   0.334448762
          4   0.334448762  -1.385675437   1.194510861
          5  -1.194510861   1.385675437  -0.334448762
          6   1.385675437  -0.334448762  -1.194510861
          7   0.334448762   1.194510861  -1.385675437
          8  -1.194510861  -0.334448762   1.385675437
          9   1.385675437  -1.194510861  -0.334448762
         10  -0.334448762   1.385675437  -1.194510861
         11   1.194510861  -1.385675437   0.334448762
         12  -1.385675437   0.334448762   1.194510861

     Diagonalizing the dynamical matrix

     q = (   -0.334448762  -1.194510861   1.385675437 )

     freq (    1) =       2.216292 [THz] =      73.927555 [cm-1]
     freq (    2) =       2.692361 [THz] =      89.807490 [cm-1]
     freq (    3) =       2.820496 [THz] =      94.081617 [cm-1]
     freq (    4) =       3.138391 [THz] =     104.685448 [cm-1]
     freq (    5) =       3.253606 [THz] =     108.528615 [cm-1]
     freq (    6) =       3.695321 [THz] =     123.262644 [cm-1]
     freq (    7) =       3.759026 [THz] =     125.387618 [cm-1]
     freq (    8) =       5.932169 [THz] =     197.875855 [cm-1]
     freq (    9) =      29.862053 [THz] =     996.090878 [cm-1]

     Mode symmetry, C_1 (1)     point group:

     freq (  1 -  1) =         73.9  [cm-1]   --> A
     freq (  2 -  2) =         89.8  [cm-1]   --> A
     freq (  3 -  3) =         94.1  [cm-1]   --> A
     freq (  4 -  4) =        104.7  [cm-1]   --> A
     freq (  5 -  5) =        108.5  [cm-1]   --> A
     freq (  6 -  6) =        123.3  [cm-1]   --> A
     freq (  7 -  7) =        125.4  [cm-1]   --> A
     freq (  8 -  8) =        197.9  [cm-1]   --> A
     freq (  9 -  9) =        996.1  [cm-1]   --> A

[...]

     Parallel routines

     INITIALIZATION:

     DYNAMICAL MATRIX:

      General routines

   This run was terminated on:  23: 1: 8   7Mar2018

   JOB DONE.
Application 30216574 resources: utime ~632530s, stime ~2110s, Rss ~425540, inblocks ~68380276, outblocks ~114733743