     Program PHONON v.6.1 (svn rev. 13369) starts on 24Feb2018 at 22: 7:31

     Reading data from directory:
     ./na.9r.save

   Info: using nr1, nr2, nr3 values from input

[...]

     IMPORTANT: XC functional enforced from input :
     Exchange-correlation      = SLA  PW   PBE  PBE ( 1  4  3  4 0 0)
     Any further DFT definition will be discarded
     Please, verify this is what you really want

     Dynamical matrices for ( 4, 4, 4)  uniform grid of q-points
     (  13q-points):
       N         xq(1)         xq(2)         xq(3)
       1   0.000000000   0.000000000   0.000000000
       2   0.334448762   0.334448762  -0.525613338
       3  -0.668897523  -0.668897523   1.051226676
       4   0.668897523  -0.191164576  -0.191164576
       5  -0.334448762  -1.194510861   1.385675437
       6   0.000000000  -0.860062100   0.860062100
       7  -1.337795047   0.382329152   0.382329152
       8   0.143284186   0.143284186   0.143284186
       9  -0.860062100  -0.860062100   1.720124199
      10  -0.525613338  -0.525613338   1.194510861
      11  -1.863408385   0.716777914   0.716777914
      12  -1.528959623   1.051226676   0.191164576
      13  -0.286568371  -0.286568371  -0.286568371

     Calculation of q =   -0.2865684  -0.2865684  -0.2865684

[...]

   Info: using nr1, nr2, nr3 values from input

     bravais-lattice index     =            0
     lattice parameter (alat)  =      17.0000  a.u.
     unit-cell volume          =     724.2840 (a.u.)^3
     number of atoms/cell      =            3
     number of atomic types    =            1
     number of electrons       =        27.00
     number of Kohn-Sham states=           18
     kinetic-energy cutoff     =      40.0000  Ry
     charge density cutoff     =     320.0000  Ry
     Exchange-correlation      = SLA  PW   PBE  PBE ( 1  4  3  4 0 0)

     celldm(1)=  17.000000  celldm(2)=   0.000000  celldm(3)=   0.000000
     celldm(4)=   0.000000  celldm(5)=   0.000000  celldm(6)=   0.000000

     crystal axes: (cart. coord. in units of alat)
               a(1) = (   0.387810   0.678487   0.678487 )
               a(2) = (   0.678487   0.387810   0.678487 )
               a(3) = (   0.678487   0.678487   0.387810 )

     reciprocal axes: (cart. coord. in units 2 pi/alat)
               b(1) = ( -2.102453  1.337795  1.337795 )
               b(2) = (  1.337795 -2.102453  1.337795 )
               b(3) = (  1.337795  1.337795 -2.102453 )

     PseudoPot. # 1 for Na read from file:
     /home/s1333534/quantum_espresso/qe-6.1/pseudo/Na_pbe_v1.uspp.F.UPF
     MD5 check sum: 76a99c7e9422403d3e93cbc85ab7bccb
     Pseudo is Ultrasoft, Zval =  9.0
     Generated by new atomic code, or converted to UPF format
     Using radial grid of  819 points,  5 beta functions with:
                l(1) =   0
                l(2) =   0
                l(3) =   1
                l(4) =   1
                l(5) =   2
     Q(r) pseudized with  8 coefficients,  rinner =    1.250   1.250   1.250
                                                       1.250   1.250

     atomic species   valence    mass     pseudopotential
        Na             9.00    22.99000     Na( 1.00)

     12 Sym. Ops., with inversion, found

   Cartesian axes

     site n.     atom                  positions (alat units)
         1           Na  tau(   1) = (   1.2601225   1.2601225   1.2601225  )
         2           Na  tau(   2) = (   0.4846618   0.4846618   0.4846618  )
         3           Na  tau(   3) = (   0.8723922   0.8723922   0.8723922  )

     number of k points=  1540  Marzari-Vanderbilt smearing, width (Ry)=  0.0200

     Number of k-points >= 100: set verbosity='high' to print them.

     The potential is recalculated from file :
     ./_ph0/na.9r.save/charge-density.dat

     Starting wfc are   15 atomic +    3 random wfc

     Band Structure Calculation
     Davidson diagonalization with overlap

     ethr =  3.70E-11,  avg # of iterations = 25.4

     End of band structure calculation

     Number of k-points >= 100: set verbosity='high' to print the bands.

     the Fermi energy is     1.7558 ev

     Writing output data file na.9r.save

     bravais-lattice index     =            0
     lattice parameter (alat)  =      17.0000  a.u.
     unit-cell volume          =     724.2840 (a.u.)^3
     number of atoms/cell      =            3
     number of atomic types    =            1
     kinetic-energy cut-off    =      40.0000  Ry
     charge density cut-off    =     320.0000  Ry
     convergence threshold     =      1.0E-16
     beta                      =       0.7000
     number of iterations used =            4
     Exchange-correlation      = SLA  PW   PBE  PBE ( 1  4  3  4 0 0)

     celldm(1)=   17.00000  celldm(2)=    0.00000  celldm(3)=    0.00000
     celldm(4)=    0.00000  celldm(5)=    0.00000  celldm(6)=    0.00000

     crystal axes: (cart. coord. in units of alat)
               a(1) = (  0.3878  0.6785  0.6785 )
               a(2) = (  0.6785  0.3878  0.6785 )
               a(3) = (  0.6785  0.6785  0.3878 )

     reciprocal axes: (cart. coord. in units 2 pi/alat)
               b(1) = ( -2.1025  1.3378  1.3378 )
               b(2) = (  1.3378 -2.1025  1.3378 )
               b(3) = (  1.3378  1.3378 -2.1025 )

     Atoms inside the unit cell:

     Cartesian axes

     site n.  atom      mass           positions (alat units)
        1     Na  22.9900   tau(    1) = (    1.26012    1.26012    1.26012  )
        2     Na  22.9900   tau(    2) = (    0.48466    0.48466    0.48466  )
        3     Na  22.9900   tau(    3) = (    0.87239    0.87239    0.87239  )

     Computing dynamical matrix for
                    q = (  -0.2865684  -0.2865684  -0.2865684 )

     13 Sym.Ops. (with q -> -q+G )

     G cutoff = 2342.5458  (   4364 G-vectors)     FFT grid: (108,108,108)
     G cutoff = 1171.2729  (   1547 G-vectors)  smooth grid: ( 72, 72, 72)

     number of k points=  1540  Marzari-Vanderbilt smearing, width (Ry)=  0.0200

     PseudoPot. # 1 for Na read from file:
     /home/s1333534/quantum_espresso/qe-6.1/pseudo/Na_pbe_v1.uspp.F.UPF
     MD5 check sum: 76a99c7e9422403d3e93cbc85ab7bccb
     Pseudo is Ultrasoft, Zval =  9.0
     Generated by new atomic code, or converted to UPF format
     Using radial grid of  819 points,  5 beta functions with:
                l(1) =   0
                l(2) =   0
                l(3) =   1
                l(4) =   1
                l(5) =   2
     Q(r) pseudized with  8 coefficients,  rinner =    1.250   1.250   1.250
                                                       1.250   1.250

     Mode symmetry, D_3d (-3m)  point group:

     Atomic displacements:
     There are   6 irreducible representations

     Representation     1      1 modes -A_1g L_1  To be done

     Representation     2      1 modes -A_1g L_1  To be done

     Representation     3      2 modes -E_g  L_3  To be done

     Representation     4      2 modes -E_g  L_3  To be done

     Representation     5      1 modes -A_2u L_2'  To be done

     Representation     6      2 modes -E_u  L_3'  To be done

     Alpha used in Ewald sum =   2.8000

     Representation #  1 mode #   1

     Self-consistent Calculation

      thresh= 1.000E-02 alpha_mix =  0.700 |ddv_scf|^2 =  2.026E-04

[...]

     End of self-consistent calculation

     Convergence has been achieved

[...]

     Representation #  3 modes #   3  4

[...]

     Representation #  5 mode #   7

[...]

     Representation #  6 modes #   8  9

     Self-consistent Calculation

[...]

      thresh= 1.271E-09 alpha_mix =  0.700 |ddv_scf|^2 =  4.339E-18

     End of self-consistent calculation

     Convergence has been achieved

     Number of q in the star =    1
     List of q in the star:
          1  -0.286568371  -0.286568371  -0.286568371

     Diagonalizing the dynamical matrix

     q = (   -0.286568371  -0.286568371  -0.286568371 )

     freq (    1) =       0.720592 [THz] =      24.036372 [cm-1]
     freq (    2) =       0.720592 [THz] =      24.036372 [cm-1]
     freq (    3) =       0.748305 [THz] =      24.960769 [cm-1]
     freq (    4) =       0.748305 [THz] =      24.960769 [cm-1]
     freq (    5) =       1.697388 [THz] =      56.618763 [cm-1]
     freq (    6) =       1.697388 [THz] =      56.618763 [cm-1]
     freq (    7) =       2.137319 [THz] =      71.293293 [cm-1]
     freq (    8) =       2.142801 [THz] =      71.476163 [cm-1]
     freq (    9) =       4.092221 [THz] =     136.501815 [cm-1]

     Mode symmetry, D_3d (-3m)  point group:

     freq (  1 -  2) =         24.0  [cm-1]   --> E_g  L_3
     freq (  3 -  4) =         25.0  [cm-1]   --> E_u  L_3'
     freq (  5 -  6) =         56.6  [cm-1]   --> E_g  L_3
     freq (  7 -  7) =         71.3  [cm-1]   --> A_1g L_1
     freq (  8 -  8) =         71.5  [cm-1]   --> A_2u L_2'
     freq (  9 -  9) =        136.5  [cm-1]   --> A_1g L_1

     General routines

     Parallel routines

     INITIALIZATION:

     DYNAMICAL MATRIX:

      General routines

   This run was terminated on:   0:17:15  25Feb2018

   JOB DONE.