     Program PHONON v.6.1 (svn rev. 13369) starts on 14Feb2018 at 12:44:17

     Reading data from directory:
     ./na.9r.save

   Info: using nr1, nr2, nr3 values from input

   Info: using nr1, nr2, nr3 values from input

     IMPORTANT: XC functional enforced from input :
     Exchange-correlation      = SLA  PW   PBE  PBE ( 1  4  3  4 0 0)
     Any further DFT definition will be discarded
     Please, verify this is what you really want

     Dynamical matrices for ( 6, 6, 6)  uniform grid of q-points
     (  32q-points):
       N         xq(1)         xq(2)         xq(3)
       1   0.000000000   0.000000000   0.000000000
       2   0.222965841   0.222965841  -0.350408892
       3   0.445931682   0.445931682  -0.700817784
       4  -0.668897523  -0.668897523   1.051226676
       5   0.445931682  -0.127443051  -0.127443051
       6   0.668897523   0.095522790  -0.477851943
       7  -0.445931682  -1.019306415   1.274192517
       8  -0.222965841  -0.796340574   0.923783625
       9   0.000000000  -0.573374733   0.573374733
      10   0.891863365  -0.254886102  -0.254886102
      11  -0.222965841  -1.369715307   1.497158358
      12  -0.000000000  -1.146749466   1.146749466
      13  -1.337795047   0.382329152   0.382329152
      14   0.095522790   0.095522790   0.095522790
      15   0.318488632   0.318488632  -0.254886102
      16  -0.796340574  -0.796340574   1.497158358
      17  -0.573374733  -0.573374733   1.146749466
      18  -0.350408892  -0.350408892   0.796340574
      19   0.541454473  -0.031920260  -0.031920260
      20  -0.573374733  -1.146749466   1.720124199
      21  -0.350408892  -0.923783625   1.369715307
      22  -0.127443051  -0.700817784   1.019306415
      23  -1.688203939   0.605294993   0.605294993
      24  -1.465238098   0.828260835   0.254886102
      25  -1.242272256   1.051226676  -0.095522790
      26  -1.242272256   0.477851943   0.477851943
      27   0.191045581   0.191045581   0.191045581
      28  -0.923783625  -0.923783625   1.943090040
      29  -0.700817784  -0.700817784   1.592681148
      30  -2.038612831   0.828260835   0.828260835
      31  -1.815646990   1.051226676   0.477851943
      32  -0.286568371  -0.286568371  -0.286568371

     Calculation of q =    0.0000000   0.0000000   0.0000000

     bravais-lattice index     =            0
     lattice parameter (alat)  =      17.0000  a.u.
     unit-cell volume          =     724.2840 (a.u.)^3
     number of atoms/cell      =            3
     number of atomic types    =            1
     kinetic-energy cut-off    =      40.0000  Ry
     charge density cut-off    =     320.0000  Ry
     convergence threshold     =      1.0E-16
     beta                      =       0.7000
     number of iterations used =            4
     Exchange-correlation      = SLA  PW   PBE  PBE ( 1  4  3  4 0 0)

     celldm(1)=   17.00000  celldm(2)=    0.00000  celldm(3)=    0.00000
     celldm(4)=    0.00000  celldm(5)=    0.00000  celldm(6)=    0.00000

     crystal axes: (cart. coord. in units of alat)
               a(1) = (  0.3878  0.6785  0.6785 )
               a(2) = (  0.6785  0.3878  0.6785 )
               a(3) = (  0.6785  0.6785  0.3878 )

     reciprocal axes: (cart. coord. in units 2 pi/alat)
               b(1) = ( -2.1025  1.3378  1.3378 )
               b(2) = (  1.3378 -2.1025  1.3378 )
               b(3) = (  1.3378  1.3378 -2.1025 )

     Atoms inside the unit cell:

     Cartesian axes

     site n.  atom      mass           positions (alat units)
        1     Na  22.9900   tau(    1) = (    1.26012    1.26012    1.26012  )
        2     Na  22.9900   tau(    2) = (    0.48466    0.48466    0.48466  )
        3     Na  22.9900   tau(    3) = (    0.87239    0.87239    0.87239  )

     Computing dynamical matrix for
                    q = (   0.0000000   0.0000000   0.0000000 )

     13 Sym.Ops. (with q -> -q+G )

     G cutoff = 2342.5458  (   1454 G-vectors)     FFT grid: (108,108,108)
     G cutoff = 1171.2729  (    516 G-vectors)  smooth grid: ( 72, 72, 72)

     number of k points=   770  Marzari-Vanderbilt smearing, width (Ry)=  0.0200

     PseudoPot. # 1 for Na read from file:
     /home/s1333534/quantum_espresso/qe-6.1/pseudo/Na_pbe_v1.uspp.F.UPF
     MD5 check sum: 76a99c7e9422403d3e93cbc85ab7bccb
     Pseudo is Ultrasoft, Zval =  9.0
     Generated by new atomic code, or converted to UPF format
     Using radial grid of  819 points,  5 beta functions with:
                l(1) =   0
                l(2) =   0
                l(3) =   1
                l(4) =   1
                l(5) =   2
     Q(r) pseudized with  8 coefficients,  rinner =    1.250   1.250   1.250
                                                       1.250   1.250

     Mode symmetry, D_3d (-3m)  point group:

     Atomic displacements:
     There are   6 irreducible representations

     Representation     1      1 modes -A_1g L_1  To be done

     Representation     2      2 modes -E_g  L_3  To be done

     Representation     3      1 modes -A_2u L_2'  To be done

     Representation     4      1 modes -A_2u L_2'  To be done

     Representation     5      2 modes -E_u  L_3'  To be done

     Representation     6      2 modes -E_u  L_3'  To be done

     Alpha used in Ewald sum =   2.8000

     Representation #  1 mode #   1

     Self-consistent Calculation

     Pert. #  1: Fermi energy shift (Ry) =    -1.9603E-04     2.3823E-22

      thresh= 1.000E-02 alpha_mix =  0.700 |ddv_scf|^2 =  6.418E-06

[...]

     End of self-consistent calculation

     Convergence has been achieved

     Representation #  2 modes #   2  3

[...]

     Representation #  4 mode #   5

[...]

     Representation #  6 modes #   8  9

     Self-consistent Calculation

[...]

     Pert. #  1: Fermi energy shift (Ry) =     8.6165E-27    -9.5662E-43
     Pert. #  2: Fermi energy shift (Ry) =    -2.1541E-27    -9.5662E-43

      thresh= 1.197E-09 alpha_mix =  0.700 |ddv_scf|^2 =  3.420E-18

     End of self-consistent calculation

     Convergence has been achieved

     Number of q in the star =    1
     List of q in the star:
          1   0.000000000   0.000000000   0.000000000

     Diagonalizing the dynamical matrix

     q = (    0.000000000   0.000000000   0.000000000 )

     freq (    1) =      -0.501950 [THz] =     -16.743250 [cm-1]
     freq (    2) =      -0.501950 [THz] =     -16.743250 [cm-1]
     freq (    3) =      -0.273039 [THz] =      -9.107616 [cm-1]
     freq (    4) =       1.318099 [THz] =      43.967063 [cm-1]
     freq (    5) =       1.318099 [THz] =      43.967063 [cm-1]
     freq (    6) =       1.450072 [THz] =      48.369187 [cm-1]
     freq (    7) =       1.450072 [THz] =      48.369187 [cm-1]
     freq (    8) =       3.547024 [THz] =     118.316001 [cm-1]
     freq (    9) =       3.581898 [THz] =     119.479246 [cm-1]

     Mode symmetry, D_3d (-3m)  point group:

     freq (  1 -  2) =        -16.7  [cm-1]   --> E_u  L_3'       I
     freq (  3 -  3) =         -9.1  [cm-1]   --> A_2u L_2'       I
     freq (  4 -  5) =         44.0  [cm-1]   --> E_g  L_3        R
     freq (  6 -  7) =         48.4  [cm-1]   --> E_u  L_3'       I
     freq (  8 -  8) =        118.3  [cm-1]   --> A_2u L_2'       I
     freq (  9 -  9) =        119.5  [cm-1]   --> A_1g L_1        R

     INITIALIZATION:

     DYNAMICAL MATRIX:

      General routines

   This run was terminated on:  16:44:32  14Feb2018

   JOB DONE.