     Program PHONON v.6.1 (svn rev. 13369) starts on 30Oct2017 at 16:11:33

     Reading data from directory:
     ./aluminium.save

   Info: using nr1, nr2, nr3 values from input

[...]

     IMPORTANT: XC functional enforced from input :
     Exchange-correlation      =  SLA  PW   PBX  PBC ( 1  4  3  4 0 0)
     Any further DFT definition will be discarded
     Please, verify this is what you really want

               file Al.pbe-n-kjpaw_psl.1.0.0.UPF: wavefunction(s)  3S 3P renormalized

     Calculation of q =    0.6000000   0.8000000   0.3000000

[...]

   Info: using nr1, nr2, nr3 values from input

     bravais-lattice index     =            2
     lattice parameter (alat)  =       7.6456  a.u.
     unit-cell volume          =     111.7313 (a.u.)^3
     number of atoms/cell      =            1
     number of atomic types    =            1
     number of electrons       =         3.00
     number of Kohn-Sham states=            6
     kinetic-energy cutoff     =      30.0000  Ry
     charge density cutoff     =     120.0000  Ry
     Exchange-correlation      =  SLA  PW   PBX  PBC ( 1  4  3  4 0 0)

     celldm(1)=   7.645600  celldm(2)=   0.000000  celldm(3)=   0.000000
     celldm(4)=   0.000000  celldm(5)=   0.000000  celldm(6)=   0.000000

     crystal axes: (cart. coord. in units of alat)
               a(1) = (  -0.500000   0.000000   0.500000 )
               a(2) = (   0.000000   0.500000   0.500000 )
               a(3) = (  -0.500000   0.500000   0.000000 )

     reciprocal axes: (cart. coord. in units 2 pi/alat)
               b(1) = ( -1.000000 -1.000000  1.000000 )
               b(2) = (  1.000000  1.000000  1.000000 )
               b(3) = ( -1.000000  1.000000 -1.000000 )

     PseudoPot. # 1 for Al read from file:
     /home/max/quantum_espresso/qe-6.1/pseudo/Al.pbe-n-kjpaw_psl.1.0.0.UPF
     MD5 check sum: dd5adf945272da8132fc805c9e56c2d6
     Pseudo is Projector augmented-wave + core cor, Zval =  3.0
     Generated using "atomic" code by A. Dal Corso  v.5.1
     Shape of augmentation charge: PSQ
     Using radial grid of 1135 points,  6 beta functions with:
                l(1) =   0
                l(2) =   0
                l(3) =   1
                l(4) =   1
                l(5) =   2
                l(6) =   2
     Q(r) pseudized with 0 coefficients

     atomic species   valence    mass     pseudopotential
        Al             3.00    26.98200     Al( 1.00)

     48 Sym. Ops., with inversion, found

   Cartesian axes

     site n.     atom                  positions (alat units)
         1           Al  tau(   1) = (   0.0000000   0.0000000   0.0000000  )

     number of k points= 13824  gaussian smearing, width (Ry)=  0.0500

     Number of k-points >= 100: set verbosity='high' to print them.

     The potential is recalculated from file :
     ./_ph0/aluminium.save/charge-density.dat

     Starting wfc are    4 atomic +    2 random wfc
     Checking if some PAW data can be deallocated...

     Band Structure Calculation
     Davidson diagonalization with overlap

     ethr =  3.33E-10,  avg # of iterations = 16.0

     End of band structure calculation

     Number of k-points >= 100: set verbosity='high' to print the bands.

     the Fermi energy is     7.8704 ev

     Writing output data file aluminium.save

     bravais-lattice index     =            2
     lattice parameter (alat)  =       7.6456  a.u.
     unit-cell volume          =     111.7313 (a.u.)^3
     number of atoms/cell      =            1
     number of atomic types    =            1
     kinetic-energy cut-off    =      30.0000  Ry
     charge density cut-off    =     120.0000  Ry
     convergence threshold     =      1.0E-12
     beta                      =       0.7000
     number of iterations used =            4
     Exchange-correlation      =  SLA  PW   PBX  PBC ( 1  4  3  4 0 0)

     celldm(1)=    7.64560  celldm(2)=    0.00000  celldm(3)=    0.00000
     celldm(4)=    0.00000  celldm(5)=    0.00000  celldm(6)=    0.00000

     crystal axes: (cart. coord. in units of alat)
               a(1) = ( -0.5000  0.0000  0.5000 )
               a(2) = (  0.0000  0.5000  0.5000 )
               a(3) = ( -0.5000  0.5000  0.0000 )

     reciprocal axes: (cart. coord. in units 2 pi/alat)
               b(1) = ( -1.0000 -1.0000  1.0000 )
               b(2) = (  1.0000  1.0000  1.0000 )
               b(3) = ( -1.0000  1.0000 -1.0000 )

     Atoms inside the unit cell:

     Cartesian axes

     site n.  atom      mass           positions (alat units)
        1     Al  26.9820   tau(    1) = (    0.00000    0.00000    0.00000  )

     Computing dynamical matrix for
                    q = (   0.6000000   0.8000000   0.3000000 )

     No symmetry!

     G cutoff =  177.6825  (   2445 G-vectors)     FFT grid: ( 20, 20, 20)

     number of k points= 13824  gaussian smearing, width (Ry)=  0.0500

     PseudoPot. # 1 for Al read from file:
     /home/max/quantum_espresso/qe-6.1/pseudo/Al.pbe-n-kjpaw_psl.1.0.0.UPF
     MD5 check sum: dd5adf945272da8132fc805c9e56c2d6
     Pseudo is Projector augmented-wave + core cor, Zval =  3.0
     Generated using "atomic" code by A. Dal Corso  v.5.1
     Shape of augmentation charge: PSQ
     Using radial grid of 1135 points,  6 beta functions with:
                l(1) =   0
                l(2) =   0
                l(3) =   1
                l(4) =   1
                l(5) =   2
                l(6) =   2
     Q(r) pseudized with 0 coefficients

     Mode symmetry, C_1 (1)     point group:

     Atomic displacements:
     There are   3 irreducible representations

     Representation     1      1 modes -A  To be done

[...]

     Representation     3      1 modes -A  To be done

     Alpha used in Ewald sum =   1.4000

     Representation #  1 mode #   1

     Self-consistent Calculation

      thresh= 1.000E-02 alpha_mix =  0.700 |ddv_scf|^2 =  1.992E-05

[...]

     End of self-consistent calculation

     Convergence has been achieved

[...]

     Representation #  3 mode #   3

     Self-consistent Calculation

[...]

      thresh= 1.099E-07 alpha_mix =  0.700 |ddv_scf|^2 =  6.843E-14

     End of self-consistent calculation

     Convergence has been achieved

     Number of q in the star =   48
     List of q in the star:
          1   0.600000000   0.800000000   0.300000000
          2  -0.600000000  -0.800000000   0.300000000
          3  -0.600000000   0.800000000  -0.300000000
          4   0.600000000  -0.800000000  -0.300000000
          5   0.800000000   0.600000000  -0.300000000
          6  -0.800000000  -0.600000000  -0.300000000
          7   0.800000000  -0.600000000   0.300000000
          8  -0.800000000   0.600000000   0.300000000
          9   0.300000000  -0.800000000   0.600000000
         10  -0.300000000  -0.800000000  -0.600000000
         11   0.300000000   0.800000000  -0.600000000
         12  -0.300000000   0.800000000   0.600000000
         13  -0.600000000   0.300000000   0.800000000
         14  -0.600000000  -0.300000000  -0.800000000
         15   0.600000000   0.300000000  -0.800000000
         16   0.600000000  -0.300000000   0.800000000
         17   0.800000000   0.300000000   0.600000000
         18  -0.800000000   0.300000000  -0.600000000
         19   0.800000000  -0.300000000  -0.600000000
         20  -0.800000000  -0.300000000   0.600000000
         21   0.300000000   0.600000000   0.800000000
         22   0.300000000  -0.600000000  -0.800000000
         23  -0.300000000  -0.600000000   0.800000000
         24  -0.300000000   0.600000000  -0.800000000
         25  -0.600000000  -0.800000000  -0.300000000
         26   0.600000000   0.800000000  -0.300000000
         27   0.600000000  -0.800000000   0.300000000
         28  -0.600000000   0.800000000   0.300000000
         29  -0.800000000  -0.600000000   0.300000000
         30   0.800000000   0.600000000   0.300000000
         31  -0.800000000   0.600000000  -0.300000000
         32   0.800000000  -0.600000000  -0.300000000
         33  -0.300000000   0.800000000  -0.600000000
         34   0.300000000   0.800000000   0.600000000
         35  -0.300000000  -0.800000000   0.600000000
         36   0.300000000  -0.800000000  -0.600000000
         37   0.600000000  -0.300000000  -0.800000000
         38   0.600000000   0.300000000   0.800000000
         39  -0.600000000  -0.300000000   0.800000000
         40  -0.600000000   0.300000000  -0.800000000
         41  -0.800000000  -0.300000000  -0.600000000
         42   0.800000000  -0.300000000   0.600000000
         43  -0.800000000   0.300000000   0.600000000
         44   0.800000000   0.300000000  -0.600000000
         45  -0.300000000  -0.600000000  -0.800000000
         46  -0.300000000   0.600000000   0.800000000
         47   0.300000000   0.600000000  -0.800000000
         48   0.300000000  -0.600000000   0.800000000

     Diagonalizing the dynamical matrix

     q = (    0.600000000   0.800000000   0.300000000 )

     freq (    1) =       4.973061 [THz] =     165.883451 [cm-1]
     freq (    2) =       6.355487 [THz] =     211.996239 [cm-1]
     freq (    3) =       8.812382 [THz] =     293.949423 [cm-1]

     Mode symmetry, C_1 (1)     point group:

     freq (  1 -  1) =        165.9  [cm-1]   --> A
     freq (  2 -  2) =        212.0  [cm-1]   --> A
     freq (  3 -  3) =        293.9  [cm-1]   --> A

     General routines

     Parallel routines

     INITIALIZATION:

     DYNAMICAL MATRIX:

      General routines

   This run was terminated on:  16:25:21  30Oct2017

   JOB DONE.