     Program PHONON v.6.1 (svn rev. 13369) starts on 13Feb2018 at 10:28: 0

     Reading data from directory:
     ./na.fcc.save

   Info: using nr1, nr2, nr3 values from input

[...]

     IMPORTANT: XC functional enforced from input :
     Exchange-correlation      = SLA  PW   PBE  PBE ( 1  4  3  4 0 0)
     Any further DFT definition will be discarded
     Please, verify this is what you really want

     Dynamical matrices for ( 6, 6, 6)  uniform grid of q-points
     (  16q-points):
       N         xq(1)         xq(2)         xq(3)
       1   0.000000000   0.000000000   0.000000000
       2  -0.166666667   0.166666667  -0.166666667
       3  -0.333333333   0.333333333  -0.333333333
       4   0.500000000  -0.500000000   0.500000000
       5   0.000000000   0.333333333   0.000000000
       6  -0.166666667   0.500000000  -0.166666667
       7   0.666666667  -0.333333333   0.666666667
       8   0.500000000  -0.166666667   0.500000000
       9   0.333333333   0.000000000   0.333333333
      10   0.000000000   0.666666667   0.000000000
      11   0.833333333  -0.166666667   0.833333333
      12   0.666666667  -0.000000000   0.666666667
      13   0.000000000  -1.000000000   0.000000000
      14   0.666666667  -0.333333333   1.000000000
      15   0.500000000  -0.166666667   0.833333333
      16  -0.333333333  -1.000000000   0.000000000

     Calculation of q =    0.0000000   0.0000000   0.0000000

     bravais-lattice index     =            2
     lattice parameter (alat)  =      10.5000  a.u.
     unit-cell volume          =     289.4062 (a.u.)^3
     number of atoms/cell      =            1
     number of atomic types    =            1
     kinetic-energy cut-off    =      40.0000  Ry
     charge density cut-off    =     320.0000  Ry
     convergence threshold     =      1.0E-16
     beta                      =       0.7000
     number of iterations used =            4
     Exchange-correlation      = SLA  PW   PBE  PBE ( 1  4  3  4 0 0)

     celldm(1)=   10.50000  celldm(2)=    0.00000  celldm(3)=    0.00000
     celldm(4)=    0.00000  celldm(5)=    0.00000  celldm(6)=    0.00000

     crystal axes: (cart. coord. in units of alat)
               a(1) = ( -0.5000  0.0000  0.5000 )
               a(2) = (  0.0000  0.5000  0.5000 )
               a(3) = ( -0.5000  0.5000  0.0000 )

     reciprocal axes: (cart. coord. in units 2 pi/alat)
               b(1) = ( -1.0000 -1.0000  1.0000 )
               b(2) = (  1.0000  1.0000  1.0000 )
               b(3) = ( -1.0000  1.0000 -1.0000 )

     Atoms inside the unit cell:

     Cartesian axes

     site n.  atom      mass           positions (alat units)
        1     Na  22.9900   tau(    1) = (    0.00000    0.00000    0.00000  )

     Computing dynamical matrix for
                    q = (   0.0000000   0.0000000   0.0000000 )

     49 Sym.Ops. (with q -> -q+G )

     G cutoff =  893.6528  (   1747 G-vectors)     FFT grid: ( 45, 45, 45)
     G cutoff =  446.8264  (    618 G-vectors)  smooth grid: ( 30, 30, 30)

     number of k points=   770  Marzari-Vanderbilt smearing, width (Ry)=  0.0200

     PseudoPot. # 1 for Na read from file:
     /home/s1333534/quantum_espresso/qe-6.1/pseudo/Na_pbe_v1.uspp.F.UPF
     MD5 check sum: 76a99c7e9422403d3e93cbc85ab7bccb
     Pseudo is Ultrasoft, Zval =  9.0
     Generated by new atomic code, or converted to UPF format
     Using radial grid of  819 points,  5 beta functions with:
                l(1) =   0
                l(2) =   0
                l(3) =   1
                l(4) =   1
                l(5) =   2
     Q(r) pseudized with  8 coefficients,  rinner =    1.250   1.250   1.250
                                                       1.250   1.250

     Mode symmetry, O_h (m-3m)  point group:

     Atomic displacements:
     There are   1 irreducible representations

     Representation     1      3 modes -T_1u G_15  G_4-  To be done

     Alpha used in Ewald sum =   2.8000

     Representation #  1 modes #   1  2  3

     Self-consistent Calculation

     Pert. #  1: Fermi energy shift (Ry) =    -5.1699E-26     3.7616E-37
     Pert. #  2: Fermi energy shift (Ry) =     0.0000E+00     4.7020E-38
     Pert. #  3: Fermi energy shift (Ry) =     9.0473E-26     0.0000E+00

      thresh= 1.000E-02 alpha_mix =  0.700 |ddv_scf|^2 =  7.883E-07

[...]

     Pert. #  1: Fermi energy shift (Ry) =    -9.6935E-27     3.8265E-42
     Pert. #  2: Fermi energy shift (Ry) =     4.8468E-27    -3.8265E-42
     Pert. #  3: Fermi energy shift (Ry) =     2.4234E-27    -4.3048E-42

[...]

     End of self-consistent calculation

     Convergence has been achieved

     Number of q in the star =    1
     List of q in the star:
          1   0.000000000   0.000000000   0.000000000

     Diagonalizing the dynamical matrix

     q = (    0.000000000   0.000000000   0.000000000 )

     freq (    1) =      -0.487245 [THz] =     -16.252760 [cm-1]
     freq (    2) =      -0.487245 [THz] =     -16.252760 [cm-1]
     freq (    3) =      -0.487245 [THz] =     -16.252760 [cm-1]

     Mode symmetry, O_h (m-3m)  point group:

     freq (  1 -  3) =        -16.3  [cm-1]   --> T_1u G_15  G_4- I

[...]

     bravais-lattice index     =            2
     lattice parameter (alat)  =      10.5000  a.u.
     unit-cell volume          =     289.4062 (a.u.)^3
     number of atoms/cell      =            1
     number of atomic types    =            1
     number of electrons       =         9.00
     number of Kohn-Sham states=            9
     kinetic-energy cutoff     =      40.0000  Ry
     charge density cutoff     =     320.0000  Ry
     Exchange-correlation      = SLA  PW   PBE  PBE ( 1  4  3  4 0 0)

[...]

     atomic species   valence    mass     pseudopotential
        Na             9.00    22.99000     Na( 1.00)

     48 Sym. Ops., with inversion, found

[...]

     site n.     atom                  positions (alat units)
         1           Na  tau(   1) = (   0.0000000   0.0000000   0.0000000  )

[...]

     Number of k-points >= 100: set verbosity='high' to print them.

     The potential is recalculated from file :
     ./_ph0/na.fcc.save/charge-density.dat

     Starting wfc are    5 atomic +    4 random wfc

     Band Structure Calculation
     Davidson diagonalization with overlap

     ethr =  1.11E-10,  avg # of iterations = 21.5

     End of band structure calculation

     Number of k-points >= 100: set verbosity='high' to print the bands.

     the Fermi energy is     1.0432 ev

     Writing output data file na.fcc.save

[...]

      6 Sym.Ops. (no q -> -q+G )

[...]

     Mode symmetry, C_3v (3m)   point group:

[...]

     Representation     1      1 modes -A_1  L_1  To be done

     Representation     2      2 modes -E    L_3  To be done

[...]

     Representation #  1 mode #   1

[...]

     freq (  1 -  2) =         24.1  [cm-1]   --> E    L_3
     freq (  3 -  3) =         54.0  [cm-1]   --> A_1  L_1

[...]

     Representation     1      1 modes -A_1  L_1  To be done

     Representation     2      2 modes -E    L_3  To be done

[...]

     Mode symmetry, C_3v (3m)   point group:

     freq (  1 -  2) =         42.9  [cm-1]   --> E    L_3
     freq (  3 -  3) =         89.5  [cm-1]   --> A_1  L_1

[...]

     Mode symmetry, D_3d (-3m)  point group:

[...]

     Representation     1      1 modes -A_2u L_2'  To be done

     Representation     2      2 modes -E_u  L_3'  To be done

[...]

     Mode symmetry, D_3d (-3m)  point group:

     freq (  1 -  2) =         50.8  [cm-1]   --> E_u  L_3'
     freq (  3 -  3) =        102.4  [cm-1]   --> A_2u L_2'

[...]

     Band Structure Calculation
     Davidson diagonalization with overlap
     c_bands:  1 eigenvalues not converged

[...]

     Mode symmetry, C_4v (4mm)  point group:

[...]

     Representation     1      1 modes -A_1  G_1 D_1  To be done

     Representation     2      2 modes -E    G_5 D_5  To be done

[...]

     freq (  1 -  2) =         41.4  [cm-1]   --> E    G_5 D_5
     freq (  3 -  3) =         48.8  [cm-1]   --> A_1  G_1 D_1

[...]

     Mode symmetry, C_s (m)     point group:

[...]

     Representation     1      1 modes -A'  To be done

[...]

     Representation     3      1 modes -A''  To be done

[...]

     freq (  1 -  1) =         52.1  [cm-1]   --> A'
     freq (  2 -  2) =         56.2  [cm-1]   --> A''
     freq (  3 -  3) =         82.5  [cm-1]   --> A'

[...]

     freq (  1 -  1) =         60.4  [cm-1]   --> A''
     freq (  2 -  2) =         65.9  [cm-1]   --> A'
     freq (  3 -  3) =         99.7  [cm-1]   --> A'

[...]

     Mode symmetry, C_2v (mm2)  point group:

[...]

     freq (  1 -  1) =         30.4  [cm-1]   --> B_1  D_3  S_3
     freq (  2 -  2) =         56.5  [cm-1]   --> B_2  D_4  S_4
     freq (  3 -  3) =         73.6  [cm-1]   --> A_1  D_1  S_1

[...]

     Representation     2      2 modes -E    G_5 D_5  To be done

[...]

     Mode symmetry, C_4v (4mm)  point group:

     freq (  1 -  2) =         70.5  [cm-1]   --> E    G_5 D_5
     freq (  3 -  3) =         89.4  [cm-1]   --> A_1  G_1 D_1

[...]

     freq (  1 -  1) =         75.5  [cm-1]   --> A''
     freq (  2 -  2) =         82.1  [cm-1]   --> A'
     freq (  3 -  3) =         99.5  [cm-1]   --> A'

[...]

     17 Sym.Ops. (with q -> -q+G )

[...]

     Mode symmetry, D_4h(4/mmm) point group:

[...]

     Representation     1      1 modes -A_2u X_4' M_4'  To be done

     Representation     2      2 modes -E_u  X_5' M_5'  To be done

[...]

     Representation #  2 modes #   2  3

[...]

     Mode symmetry, D_4h(4/mmm) point group:

     freq (  1 -  2) =         81.5  [cm-1]   --> E_u  X_5' M_5'
     freq (  3 -  3) =        105.7  [cm-1]   --> A_2u X_4' M_4'

[...]

     Representation     2      1 modes -A'  To be done

     Representation     3      1 modes -A''  To be done

[...]

     Mode symmetry, C_s (m)     point group:

     freq (  1 -  1) =         62.6  [cm-1]   --> A'
     freq (  2 -  2) =         81.2  [cm-1]   --> A''
     freq (  3 -  3) =         93.1  [cm-1]   --> A'

[...]

     Mode symmetry, C_2  (2)    point group:

[...]

     Representation     1      1 modes -A  To be done

[...]

     Representation     3      1 modes -B  To be done

[...]

     Mode symmetry, C_2  (2)    point group:

     freq (  1 -  1) =         66.8  [cm-1]   --> B
     freq (  2 -  2) =         85.2  [cm-1]   --> A
     freq (  3 -  3) =         97.1  [cm-1]   --> B

     Calculation of q =   -0.3333333  -1.0000000   0.0000000

[...]

   Info: using nr1, nr2, nr3 values from input

     bravais-lattice index     =            2
     lattice parameter (alat)  =      10.5000  a.u.
     unit-cell volume          =     289.4062 (a.u.)^3
     number of atoms/cell      =            1
     number of atomic types    =            1
     number of electrons       =         9.00
     number of Kohn-Sham states=            9
     kinetic-energy cutoff     =      40.0000  Ry
     charge density cutoff     =     320.0000  Ry
     Exchange-correlation      = SLA  PW   PBE  PBE ( 1  4  3  4 0 0)

[...]

     atomic species   valence    mass     pseudopotential
        Na             9.00    22.99000     Na( 1.00)

     48 Sym. Ops., with inversion, found

[...]

     site n.     atom                  positions (alat units)
         1           Na  tau(   1) = (   0.0000000   0.0000000   0.0000000  )

[...]

     Number of k-points >= 100: set verbosity='high' to print them.

     The potential is recalculated from file :
     ./_ph0/na.fcc.save/charge-density.dat

     Starting wfc are    5 atomic +    4 random wfc

     Band Structure Calculation
     Davidson diagonalization with overlap

     ethr =  1.11E-10,  avg # of iterations = 21.4

     End of band structure calculation

     Number of k-points >= 100: set verbosity='high' to print the bands.

     the Fermi energy is     1.0432 ev

     Writing output data file na.fcc.save

     bravais-lattice index     =            2
     lattice parameter (alat)  =      10.5000  a.u.
     unit-cell volume          =     289.4062 (a.u.)^3
     number of atoms/cell      =            1
     number of atomic types    =            1
     kinetic-energy cut-off    =      40.0000  Ry
     charge density cut-off    =     320.0000  Ry
     convergence threshold     =      1.0E-16
     beta                      =       0.7000
     number of iterations used =            4
     Exchange-correlation      = SLA  PW   PBE  PBE ( 1  4  3  4 0 0)

     celldm(1)=   10.50000  celldm(2)=    0.00000  celldm(3)=    0.00000
     celldm(4)=    0.00000  celldm(5)=    0.00000  celldm(6)=    0.00000

     crystal axes: (cart. coord. in units of alat)
               a(1) = ( -0.5000  0.0000  0.5000 )
               a(2) = (  0.0000  0.5000  0.5000 )
               a(3) = ( -0.5000  0.5000  0.0000 )

     reciprocal axes: (cart. coord. in units 2 pi/alat)
               b(1) = ( -1.0000 -1.0000  1.0000 )
               b(2) = (  1.0000  1.0000  1.0000 )
               b(3) = ( -1.0000  1.0000 -1.0000 )

     Atoms inside the unit cell:

     Cartesian axes

     site n.  atom      mass           positions (alat units)
        1     Na  22.9900   tau(    1) = (    0.00000    0.00000    0.00000  )

     Computing dynamical matrix for
                    q = (  -0.3333333  -1.0000000   0.0000000 )

      4 Sym.Ops. (no q -> -q+G )

     G cutoff =  893.6528  (   1747 G-vectors)     FFT grid: ( 45, 45, 45)
     G cutoff =  446.8264  (    618 G-vectors)  smooth grid: ( 30, 30, 30)

     number of k points= 16000  Marzari-Vanderbilt smearing, width (Ry)=  0.0200

     PseudoPot. # 1 for Na read from file:
     /home/s1333534/quantum_espresso/qe-6.1/pseudo/Na_pbe_v1.uspp.F.UPF
     MD5 check sum: 76a99c7e9422403d3e93cbc85ab7bccb
     Pseudo is Ultrasoft, Zval =  9.0
     Generated by new atomic code, or converted to UPF format
     Using radial grid of  819 points,  5 beta functions with:
                l(1) =   0
                l(2) =   0
                l(3) =   1
                l(4) =   1
                l(5) =   2
     Q(r) pseudized with  8 coefficients,  rinner =    1.250   1.250   1.250
                                                       1.250   1.250

[...]

     Atomic displacements:
     There are   3 irreducible representations

[...]

     Representation     3      1 modes -B_2  D_4  S_4  To be done

     Alpha used in Ewald sum =   2.8000

[...]

     Representation #  3 mode #   3

     Self-consistent Calculation

[...]

      thresh= 9.753E-09 alpha_mix =  0.700 |ddv_scf|^2 =  2.305E-17

     End of self-consistent calculation

     Convergence has been achieved

     Number of q in the star =   12
     List of q in the star:
          1  -0.333333333  -1.000000000   0.000000000
          2   0.000000000  -1.000000000  -0.333333333
          3   0.000000000  -1.000000000   0.333333333
          4   0.333333333  -1.000000000   0.000000000
          5  -1.000000000   0.000000000  -0.333333333
          6   1.000000000   0.000000000   0.333333333
          7   0.000000000   0.333333333   1.000000000
          8   0.000000000  -0.333333333  -1.000000000
          9  -1.000000000  -0.333333333   0.000000000
         10   1.000000000   0.333333333   0.000000000
         11  -0.333333333   0.000000000   1.000000000
         12   0.333333333   0.000000000   1.000000000

     Diagonalizing the dynamical matrix

     q = (   -0.333333333  -1.000000000   0.000000000 )

     freq (    1) =       2.244363 [THz] =      74.863887 [cm-1]
     freq (    2) =       2.598462 [THz] =      86.675347 [cm-1]
     freq (    3) =       3.007733 [THz] =     100.327173 [cm-1]

     Mode symmetry, C_2v (mm2)  point group:

     freq (  1 -  1) =         74.9  [cm-1]   --> A_1  D_1  S_1
     freq (  2 -  2) =         86.7  [cm-1]   --> B_1  D_3  S_3
     freq (  3 -  3) =        100.3  [cm-1]   --> B_2  D_4  S_4

     General routines

     Parallel routines

     INITIALIZATION:

     DYNAMICAL MATRIX:

      General routines

   This run was terminated on:  17:51:44  13Feb2018

   JOB DONE.