     Program PHONON v.6.1 (svn rev. 13369) starts on 30Oct2017 at 14:27:15

     Reading data from directory:
     ./aluminium.save

   Info: using nr1, nr2, nr3 values from input

[...]

     IMPORTANT: XC functional enforced from input :
     Exchange-correlation      =  SLA  PW   PBX  PBC ( 1  4  3  4 0 0)
     Any further DFT definition will be discarded
     Please, verify this is what you really want

               file Al.pbe-n-kjpaw_psl.1.0.0.UPF: wavefunction(s)  3S 3P renormalized

     Dynamical matrices for (12,12,12)  uniform grid of q-points
     (  72q-points):
       N         xq(1)         xq(2)         xq(3)
       1   0.000000000   0.000000000   0.000000000
       2  -0.083333333   0.083333333  -0.083333333
       3  -0.166666667   0.166666667  -0.166666667
       4  -0.250000000   0.250000000  -0.250000000
       5  -0.333333333   0.333333333  -0.333333333
       6  -0.416666667   0.416666667  -0.416666667
       7   0.500000000  -0.500000000   0.500000000
       8   0.000000000   0.166666667   0.000000000
       9  -0.083333333   0.250000000  -0.083333333
      10  -0.166666667   0.333333333  -0.166666667
      11  -0.250000000   0.416666667  -0.250000000
      12  -0.333333333   0.500000000  -0.333333333
      13   0.583333333  -0.416666667   0.583333333
      14   0.500000000  -0.333333333   0.500000000
      15   0.416666667  -0.250000000   0.416666667
      16   0.333333333  -0.166666667   0.333333333
      17   0.250000000  -0.083333333   0.250000000
      18   0.166666667  -0.000000000   0.166666667
      19   0.000000000   0.333333333   0.000000000
      20  -0.083333333   0.416666667  -0.083333333
      21  -0.166666667   0.500000000  -0.166666667
      22  -0.250000000   0.583333333  -0.250000000
      23   0.666666667  -0.333333333   0.666666667
      24   0.583333333  -0.250000000   0.583333333
      25   0.500000000  -0.166666667   0.500000000
      26   0.416666667  -0.083333333   0.416666667
      27   0.333333333   0.000000000   0.333333333
      28   0.000000000   0.500000000   0.000000000
      29  -0.083333333   0.583333333  -0.083333333
      30  -0.166666667   0.666666667  -0.166666667
      31   0.750000000  -0.250000000   0.750000000
      32   0.666666667  -0.166666667   0.666666667
      33   0.583333333  -0.083333333   0.583333333
      34   0.500000000   0.000000000   0.500000000
      35   0.000000000   0.666666667   0.000000000
      36  -0.083333333   0.750000000  -0.083333333
      37   0.833333333  -0.166666667   0.833333333
      38   0.750000000  -0.083333333   0.750000000
      39   0.666666667  -0.000000000   0.666666667
      40   0.000000000   0.833333333   0.000000000
      41   0.916666667  -0.083333333   0.916666667
      42   0.833333333   0.000000000   0.833333333
      43   0.000000000  -1.000000000   0.000000000
      44  -0.166666667   0.333333333   0.000000000
      45  -0.250000000   0.416666667  -0.083333333
      46  -0.333333333   0.500000000  -0.166666667
      47   0.583333333  -0.416666667   0.750000000
      48   0.500000000  -0.333333333   0.666666667
      49  -0.166666667   0.500000000   0.000000000
      50  -0.250000000   0.583333333  -0.083333333
      51   0.666666667  -0.333333333   0.833333333
      52   0.583333333  -0.250000000   0.750000000
      53   0.500000000  -0.166666667   0.666666667
      54   0.416666667  -0.083333333   0.583333333
      55   0.333333333   0.000000000   0.500000000
      56  -0.166666667   0.666666667  -0.000000000
      57   0.750000000  -0.250000000   0.916666667
      58   0.666666667  -0.166666667   0.833333333
      59   0.583333333  -0.083333333   0.750000000
      60   0.500000000   0.000000000   0.666666667
      61   0.833333333  -0.166666667   1.000000000
      62   0.750000000  -0.083333333   0.916666667
      63   0.666666667   0.000000000   0.833333333
      64  -0.166666667  -1.000000000  -0.000000000
      65   0.666666667  -0.333333333   1.000000000
      66   0.583333333  -0.250000000   0.916666667
      67   0.500000000  -0.166666667   0.833333333
      68   0.666666667  -0.166666667   1.000000000
      69   0.583333333  -0.083333333   0.916666667
      70   0.500000000   0.000000000   0.833333333
      71  -0.333333333  -1.000000000   0.000000000
      72  -0.500000000  -1.000000000   0.000000000

     Calculation of q =    0.0000000   0.0000000   0.0000000

     bravais-lattice index     =            2
     lattice parameter (alat)  =       7.6456  a.u.
     unit-cell volume          =     111.7313 (a.u.)^3
     number of atoms/cell      =            1
     number of atomic types    =            1
     kinetic-energy cut-off    =      30.0000  Ry
     charge density cut-off    =     120.0000  Ry
     convergence threshold     =      1.0E-12
     beta                      =       0.7000
     number of iterations used =            4
     Exchange-correlation      =  SLA  PW   PBX  PBC ( 1  4  3  4 0 0)

     celldm(1)=    7.64560  celldm(2)=    0.00000  celldm(3)=    0.00000
     celldm(4)=    0.00000  celldm(5)=    0.00000  celldm(6)=    0.00000

     crystal axes: (cart. coord. in units of alat)
               a(1) = ( -0.5000  0.0000  0.5000 )
               a(2) = (  0.0000  0.5000  0.5000 )
               a(3) = ( -0.5000  0.5000  0.0000 )

     reciprocal axes: (cart. coord. in units 2 pi/alat)
               b(1) = ( -1.0000 -1.0000  1.0000 )
               b(2) = (  1.0000  1.0000  1.0000 )
               b(3) = ( -1.0000  1.0000 -1.0000 )

     Atoms inside the unit cell:

     Cartesian axes

     site n.  atom      mass           positions (alat units)
        1     Al  26.9820   tau(    1) = (    0.00000    0.00000    0.00000  )

     Computing dynamical matrix for
                    q = (   0.0000000   0.0000000   0.0000000 )

     49 Sym.Ops. (with q -> -q+G )

     G cutoff =  177.6825  (   2445 G-vectors)     FFT grid: ( 20, 20, 20)

     number of k points=   182  gaussian smearing, width (Ry)=  0.0500

     PseudoPot. # 1 for Al read from file:
     /home/max/quantum_espresso/qe-6.1/pseudo/Al.pbe-n-kjpaw_psl.1.0.0.UPF
     MD5 check sum: dd5adf945272da8132fc805c9e56c2d6
     Pseudo is Projector augmented-wave + core cor, Zval =  3.0
     Generated using "atomic" code by A. Dal Corso  v.5.1
     Shape of augmentation charge: PSQ
     Using radial grid of 1135 points,  6 beta functions with:
                l(1) =   0
                l(2) =   0
                l(3) =   1
                l(4) =   1
                l(5) =   2
                l(6) =   2
     Q(r) pseudized with 0 coefficients

     Mode symmetry, O_h (m-3m)  point group:

     Atomic displacements:
     There are   1 irreducible representations

     Representation     1      3 modes -T_1u G_15  G_4-  To be done

     Alpha used in Ewald sum =   1.4000

     Representation #  1 modes #   1  2  3

     Self-consistent Calculation

     Pert. #  1: Fermi energy shift (Ry) =     0.0000E+00     2.5077E-36
     Pert. #  2: Fermi energy shift (Ry) =    -2.7573E-25     4.3885E-37
     Pert. #  3: Fermi energy shift (Ry) =    -6.0315E-26    -1.2539E-37

      thresh= 1.000E-02 alpha_mix =  0.700 |ddv_scf|^2 =  8.086E-08

[...]

     Pert. #  1: Fermi energy shift (Ry) =     1.2408E-24    -9.9488E-41
     Pert. #  2: Fermi energy shift (Ry) =     1.3786E-25    -4.8979E-40
     Pert. #  3: Fermi energy shift (Ry) =    -7.7548E-26    -3.0612E-41

[...]

     End of self-consistent calculation

     Convergence has been achieved

     Number of q in the star =    1
     List of q in the star:
          1   0.000000000   0.000000000   0.000000000

     Diagonalizing the dynamical matrix

     q = (    0.000000000   0.000000000   0.000000000 )

     freq (    1) =      -0.044124 [THz] =      -1.471808 [cm-1]
     freq (    2) =      -0.044124 [THz] =      -1.471808 [cm-1]
     freq (    3) =      -0.044124 [THz] =      -1.471808 [cm-1]

     Mode symmetry, O_h (m-3m)  point group:

     freq (  1 -  3) =         -1.5  [cm-1]   --> T_1u G_15  G_4- I

[...]

     bravais-lattice index     =            2
     lattice parameter (alat)  =       7.6456  a.u.
     unit-cell volume          =     111.7313 (a.u.)^3
     number of atoms/cell      =            1
     number of atomic types    =            1
     number of electrons       =         3.00
     number of Kohn-Sham states=            6
     kinetic-energy cutoff     =      30.0000  Ry
     charge density cutoff     =     120.0000  Ry
     Exchange-correlation      =  SLA  PW   PBX  PBC ( 1  4  3  4 0 0)

[...]

     atomic species   valence    mass     pseudopotential
        Al             3.00    26.98200     Al( 1.00)

     48 Sym. Ops., with inversion, found

[...]

     site n.     atom                  positions (alat units)
         1           Al  tau(   1) = (   0.0000000   0.0000000   0.0000000  )

[...]

     Number of k-points >= 100: set verbosity='high' to print them.

     The potential is recalculated from file :
     ./_ph0/aluminium.save/charge-density.dat

     Starting wfc are    4 atomic +    2 random wfc
     Checking if some PAW data can be deallocated...

     Band Structure Calculation
     Davidson diagonalization with overlap

     ethr =  3.33E-10,  avg # of iterations = 16.2

     End of band structure calculation

     Number of k-points >= 100: set verbosity='high' to print the bands.

     the Fermi energy is     7.8704 ev

     Writing output data file aluminium.save

[...]

      6 Sym.Ops. (no q -> -q+G )

[...]

     Mode symmetry, C_3v (3m)   point group:

[...]

     Representation     1      1 modes -A_1  L_1  To be done

     Representation     2      2 modes -E    L_3  To be done

[...]

     Representation #  1 mode #   1

[...]

     freq (  1 -  2) =         38.4  [cm-1]   --> E    L_3
     freq (  3 -  3) =         79.3  [cm-1]   --> A_1  L_1

[...]

     Representation     1      1 modes -A_1  L_1  To be done

     Representation     2      2 modes -E    L_3  To be done

[...]

     Mode symmetry, C_3v (3m)   point group:

     freq (  1 -  2) =        136.8  [cm-1]   --> E    L_3
     freq (  3 -  3) =        306.0  [cm-1]   --> A_1  L_1

[...]

     Mode symmetry, D_3d (-3m)  point group:

[...]

     Representation     1      1 modes -A_2u L_2'  To be done

     Representation     2      2 modes -E_u  L_3'  To be done

[...]

     freq (  1 -  2) =        137.3  [cm-1]   --> E_u  L_3'
     freq (  3 -  3) =        316.5  [cm-1]   --> A_2u L_2'

[...]

     Mode symmetry, C_4v (4mm)  point group:

[...]

     Representation     1      1 modes -A_1  G_1 D_1  To be done

     Representation     2      2 modes -E    G_5 D_5  To be done

[...]

     freq (  1 -  2) =         48.3  [cm-1]   --> E    G_5 D_5
     freq (  3 -  3) =         87.6  [cm-1]   --> A_1  G_1 D_1

[...]

     Mode symmetry, C_s (m)     point group:

[...]

     Representation     1      1 modes -A'  To be done

[...]

     Representation     3      1 modes -A''  To be done

[...]

     freq (  1 -  1) =         76.7  [cm-1]   --> A'
     freq (  2 -  2) =         76.7  [cm-1]   --> A''
     freq (  3 -  3) =        144.5  [cm-1]   --> A'

[...]

     freq (  1 -  1) =        105.7  [cm-1]   --> A''
     freq (  2 -  2) =        109.2  [cm-1]   --> A'
     freq (  3 -  3) =        204.7  [cm-1]   --> A'

[...]

     Mode symmetry, C_2v (mm2)  point group:

[...]

     freq (  1 -  1) =         60.8  [cm-1]   --> B_1  D_3  S_3
     freq (  2 -  2) =         69.2  [cm-1]   --> B_2  D_4  S_4
     freq (  3 -  3) =        125.4  [cm-1]   --> A_1  D_1  S_1

[...]

     Mode symmetry, C_4v (4mm)  point group:

     freq (  1 -  2) =        183.8  [cm-1]   --> E    G_5 D_5
     freq (  3 -  3) =        302.0  [cm-1]   --> A_1  G_1 D_1

[...]

     freq (  1 -  1) =        189.9  [cm-1]   --> A''
     freq (  2 -  2) =        199.5  [cm-1]   --> A'
     freq (  3 -  3) =        308.2  [cm-1]   --> A'

[...]

     17 Sym.Ops. (with q -> -q+G )

[...]

     Mode symmetry, D_4h(4/mmm) point group:

[...]

     Representation     1      1 modes -A_2u X_4' M_4'  To be done

     Representation     2      2 modes -E_u  X_5' M_5'  To be done

[...]

     Mode symmetry, D_4h(4/mmm) point group:

     freq (  1 -  2) =        191.6  [cm-1]   --> E_u  X_5' M_5'
     freq (  3 -  3) =        314.2  [cm-1]   --> A_2u X_4' M_4'

[...]

     No symmetry!

[...]

     Mode symmetry, C_1 (1)     point group:

[...]

     Representation     1      1 modes -A  To be done

[...]

     freq (  1 -  1) =        123.3  [cm-1]   --> A
     freq (  2 -  2) =        140.2  [cm-1]   --> A
     freq (  3 -  3) =        228.9  [cm-1]   --> A

[...]

     freq (  1 -  1) =        191.5  [cm-1]   --> A'
     freq (  2 -  2) =        250.1  [cm-1]   --> A'
     freq (  3 -  3) =        283.8  [cm-1]   --> A''

[...]

     No symmetry!

[...]

     Representation     3      1 modes -A  To be done

[...]

     Mode symmetry, C_1 (1)     point group:

     freq (  1 -  1) =        201.7  [cm-1]   --> A
     freq (  2 -  2) =        246.9  [cm-1]   --> A
     freq (  3 -  3) =        276.7  [cm-1]   --> A

[...]

     Representation     2      1 modes -A'  To be done

     Representation     3      1 modes -A''  To be done

[...]

     Mode symmetry, C_s (m)     point group:

     freq (  1 -  1) =        195.8  [cm-1]   --> A'
     freq (  2 -  2) =        254.9  [cm-1]   --> A''
     freq (  3 -  3) =        271.1  [cm-1]   --> A'

[...]

     Mode symmetry, C_2v (mm2)  point group:

     freq (  1 -  1) =        209.6  [cm-1]   --> A_1  D_1  S_1
     freq (  2 -  2) =        227.0  [cm-1]   --> B_1  D_3  S_3
     freq (  3 -  3) =        289.2  [cm-1]   --> B_2  D_4  S_4

     Calculation of q =   -0.5000000  -1.0000000   0.0000000

[...]

   Info: using nr1, nr2, nr3 values from input

     bravais-lattice index     =            2
     lattice parameter (alat)  =       7.6456  a.u.
     unit-cell volume          =     111.7313 (a.u.)^3
     number of atoms/cell      =            1
     number of atomic types    =            1
     number of electrons       =         3.00
     number of Kohn-Sham states=            6
     kinetic-energy cutoff     =      30.0000  Ry
     charge density cutoff     =     120.0000  Ry
     Exchange-correlation      =  SLA  PW   PBX  PBC ( 1  4  3  4 0 0)

[...]

     atomic species   valence    mass     pseudopotential
        Al             3.00    26.98200     Al( 1.00)

     48 Sym. Ops., with inversion, found

[...]

     site n.     atom                  positions (alat units)
         1           Al  tau(   1) = (   0.0000000   0.0000000   0.0000000  )

[...]

     Number of k-points >= 100: set verbosity='high' to print them.

     The potential is recalculated from file :
     ./_ph0/aluminium.save/charge-density.dat

     Starting wfc are    4 atomic +    2 random wfc
     Checking if some PAW data can be deallocated...

     Band Structure Calculation
     Davidson diagonalization with overlap

     ethr =  3.33E-10,  avg # of iterations = 16.0

     End of band structure calculation

     Number of k-points >= 100: set verbosity='high' to print the bands.

     the Fermi energy is     7.8704 ev

     Writing output data file aluminium.save

     bravais-lattice index     =            2
     lattice parameter (alat)  =       7.6456  a.u.
     unit-cell volume          =     111.7313 (a.u.)^3
     number of atoms/cell      =            1
     number of atomic types    =            1
     kinetic-energy cut-off    =      30.0000  Ry
     charge density cut-off    =     120.0000  Ry
     convergence threshold     =      1.0E-12
     beta                      =       0.7000
     number of iterations used =            4
     Exchange-correlation      =  SLA  PW   PBX  PBC ( 1  4  3  4 0 0)

     celldm(1)=    7.64560  celldm(2)=    0.00000  celldm(3)=    0.00000
     celldm(4)=    0.00000  celldm(5)=    0.00000  celldm(6)=    0.00000

     crystal axes: (cart. coord. in units of alat)
               a(1) = ( -0.5000  0.0000  0.5000 )
               a(2) = (  0.0000  0.5000  0.5000 )
               a(3) = ( -0.5000  0.5000  0.0000 )

     reciprocal axes: (cart. coord. in units 2 pi/alat)
               b(1) = ( -1.0000 -1.0000  1.0000 )
               b(2) = (  1.0000  1.0000  1.0000 )
               b(3) = ( -1.0000  1.0000 -1.0000 )

     Atoms inside the unit cell:

     Cartesian axes

     site n.  atom      mass           positions (alat units)
        1     Al  26.9820   tau(    1) = (    0.00000    0.00000    0.00000  )

     Computing dynamical matrix for
                    q = (  -0.5000000  -1.0000000   0.0000000 )

      8 Sym.Ops. (no q -> -q+G )

     G cutoff =  177.6825  (   2445 G-vectors)     FFT grid: ( 20, 20, 20)

     number of k points=  1728  gaussian smearing, width (Ry)=  0.0500

     PseudoPot. # 1 for Al read from file:
     /home/max/quantum_espresso/qe-6.1/pseudo/Al.pbe-n-kjpaw_psl.1.0.0.UPF
     MD5 check sum: dd5adf945272da8132fc805c9e56c2d6
     Pseudo is Projector augmented-wave + core cor, Zval =  3.0
     Generated using "atomic" code by A. Dal Corso  v.5.1
     Shape of augmentation charge: PSQ
     Using radial grid of 1135 points,  6 beta functions with:
                l(1) =   0
                l(2) =   0
                l(3) =   1
                l(4) =   1
                l(5) =   2
                l(6) =   2
     Q(r) pseudized with 0 coefficients

[...]

     Atomic displacements:
     There are   2 irreducible representations

     Representation     1      1 modes -B_2  X_3  W_2  To be done

     Representation     2      2 modes -E    X_5  W_3  To be done

     Alpha used in Ewald sum =   1.4000

     Representation #  1 mode #   1

[...]

     Representation #  2 modes #   2  3

     Self-consistent Calculation

[...]

      thresh= 9.406E-07 alpha_mix =  0.700 |ddv_scf|^2 =  6.758E-14

     End of self-consistent calculation

     Convergence has been achieved

     Number of q in the star =    6
     List of q in the star:
          1  -0.500000000  -1.000000000   0.000000000
          2   0.000000000   1.000000000   0.500000000
          3   0.000000000   1.000000000  -0.500000000
          4   0.500000000   1.000000000   0.000000000
          5  -1.000000000  -0.500000000   0.000000000
          6   0.000000000  -0.500000000  -1.000000000

     Diagonalizing the dynamical matrix

     q = (   -0.500000000  -1.000000000   0.000000000 )

     freq (    1) =       6.376147 [THz] =     212.685362 [cm-1]
     freq (    2) =       7.780547 [THz] =     259.531111 [cm-1]
     freq (    3) =       7.780547 [THz] =     259.531111 [cm-1]

     Mode symmetry, D_2d (-42m) point group:

     freq (  1 -  1) =        212.7  [cm-1]   --> B_2  X_3  W_2
     freq (  2 -  3) =        259.5  [cm-1]   --> E    X_5  W_3

     General routines

     Parallel routines

     INITIALIZATION:

     DYNAMICAL MATRIX:

      General routines

   This run was terminated on:  22:39:14  30Oct2017

   JOB DONE.