     Program PHONON v.6.1 (svn rev. 13369) starts on 21Dec2017 at 12:15:58

     Reading data from directory:
     ./na.fcc.save

   Info: using nr1, nr2, nr3 values from input

[...]

     IMPORTANT: XC functional enforced from input :
     Exchange-correlation      = SLA  PW   PBE  PBE ( 1  4  3  4 0 0)
     Any further DFT definition will be discarded
     Please, verify this is what you really want

     Dynamical matrices for ( 8, 8, 8)  uniform grid of q-points
     (  29q-points):
       N         xq(1)         xq(2)         xq(3)
       1   0.000000000   0.000000000   0.000000000
       2  -0.125000000   0.125000000  -0.125000000
       3  -0.250000000   0.250000000  -0.250000000
       4  -0.375000000   0.375000000  -0.375000000
       5   0.500000000  -0.500000000   0.500000000
       6   0.000000000   0.250000000   0.000000000
       7  -0.125000000   0.375000000  -0.125000000
       8  -0.250000000   0.500000000  -0.250000000
       9   0.625000000  -0.375000000   0.625000000
      10   0.500000000  -0.250000000   0.500000000
      11   0.375000000  -0.125000000   0.375000000
      12   0.250000000   0.000000000   0.250000000
      13   0.000000000   0.500000000   0.000000000
      14  -0.125000000   0.625000000  -0.125000000
      15   0.750000000  -0.250000000   0.750000000
      16   0.625000000  -0.125000000   0.625000000
      17   0.500000000   0.000000000   0.500000000
      18   0.000000000   0.750000000   0.000000000
      19   0.875000000  -0.125000000   0.875000000
      20   0.750000000   0.000000000   0.750000000
      21   0.000000000  -1.000000000   0.000000000
      22  -0.250000000   0.500000000   0.000000000
      23   0.625000000  -0.375000000   0.875000000
      24   0.500000000  -0.250000000   0.750000000
      25   0.750000000  -0.250000000   1.000000000
      26   0.625000000  -0.125000000   0.875000000
      27   0.500000000   0.000000000   0.750000000
      28  -0.250000000  -1.000000000   0.000000000
      29  -0.500000000  -1.000000000   0.000000000

     Calculation of q =    0.0000000   0.0000000   0.0000000

     bravais-lattice index     =            2
     lattice parameter (alat)  =       8.4162  a.u.
     unit-cell volume          =     149.0375 (a.u.)^3
     number of atoms/cell      =            1
     number of atomic types    =            1
     kinetic-energy cut-off    =      40.0000  Ry
     charge density cut-off    =     320.0000  Ry
     convergence threshold     =      1.0E-12
     beta                      =       0.7000
     number of iterations used =            4
     Exchange-correlation      = SLA  PW   PBE  PBE ( 1  4  3  4 0 0)

     celldm(1)=    8.41625  celldm(2)=    0.00000  celldm(3)=    0.00000
     celldm(4)=    0.00000  celldm(5)=    0.00000  celldm(6)=    0.00000

     crystal axes: (cart. coord. in units of alat)
               a(1) = ( -0.5000  0.0000  0.5000 )
               a(2) = (  0.0000  0.5000  0.5000 )
               a(3) = ( -0.5000  0.5000  0.0000 )

     reciprocal axes: (cart. coord. in units 2 pi/alat)
               b(1) = ( -1.0000 -1.0000  1.0000 )
               b(2) = (  1.0000  1.0000  1.0000 )
               b(3) = ( -1.0000  1.0000 -1.0000 )

     Atoms inside the unit cell:

     Cartesian axes

     site n.  atom      mass           positions (alat units)
        1     Na  22.9900   tau(    1) = (    0.00000    0.00000    0.00000  )

     Computing dynamical matrix for
                    q = (   0.0000000   0.0000000   0.0000000 )

     49 Sym.Ops. (with q -> -q+G )

     G cutoff =  574.1525  (   3583 G-vectors)     FFT grid: ( 36, 36, 36)
     G cutoff =  287.0762  (   1255 G-vectors)  smooth grid: ( 24, 24, 24)

     number of k points=   280  Marzari-Vanderbilt smearing, width (Ry)=  0.0200

     PseudoPot. # 1 for Na read from file:
     /home/s1333534/quantum_espresso/qe-6.1/pseudo/Na_pbe_v1.uspp.F.UPF
     MD5 check sum: 76a99c7e9422403d3e93cbc85ab7bccb
     Pseudo is Ultrasoft, Zval =  9.0
     Generated by new atomic code, or converted to UPF format
     Using radial grid of  819 points,  5 beta functions with:
                l(1) =   0
                l(2) =   0
                l(3) =   1
                l(4) =   1
                l(5) =   2
     Q(r) pseudized with  8 coefficients,  rinner =    1.250   1.250   1.250
                                                       1.250   1.250

     Mode symmetry, O_h (m-3m)  point group:

     Atomic displacements:
     There are   1 irreducible representations

     Representation     1      3 modes -T_1u G_15  G_4-  To be done

     Alpha used in Ewald sum =   2.8000

     Representation #  1 modes #   1  2  3

     Self-consistent Calculation

     Pert. #  1: Fermi energy shift (Ry) =    -8.7888E-25     1.0971E-37
     Pert. #  2: Fermi energy shift (Ry) =     7.0655E-25    -8.6203E-38
     Pert. #  3: Fermi energy shift (Ry) =    -6.9793E-25     3.1347E-38

      thresh= 1.000E-02 alpha_mix =  0.700 |ddv_scf|^2 =  2.777E-06

[...]

     Pert. #  1: Fermi energy shift (Ry) =    -2.1541E-25    -5.7397E-42
     Pert. #  2: Fermi energy shift (Ry) =     2.0464E-25     6.1224E-41
     Pert. #  3: Fermi energy shift (Ry) =     8.8319E-26    -7.6530E-42

[...]

     End of self-consistent calculation

     Convergence has been achieved

     Number of q in the star =    1
     List of q in the star:
          1   0.000000000   0.000000000   0.000000000

     Diagonalizing the dynamical matrix

     q = (    0.000000000   0.000000000   0.000000000 )

     freq (    1) =       0.585229 [THz] =      19.521126 [cm-1]
     freq (    2) =       0.585229 [THz] =      19.521126 [cm-1]
     freq (    3) =       0.585229 [THz] =      19.521126 [cm-1]

     Mode symmetry, O_h (m-3m)  point group:

     freq (  1 -  3) =         19.5  [cm-1]   --> T_1u G_15  G_4- I

[...]

     bravais-lattice index     =            2
     lattice parameter (alat)  =       8.4162  a.u.
     unit-cell volume          =     149.0375 (a.u.)^3
     number of atoms/cell      =            1
     number of atomic types    =            1
     number of electrons       =         9.00
     number of Kohn-Sham states=            9
     kinetic-energy cutoff     =      40.0000  Ry
     charge density cutoff     =     320.0000  Ry
     Exchange-correlation      = SLA  PW   PBE  PBE ( 1  4  3  4 0 0)

[...]

     atomic species   valence    mass     pseudopotential
        Na             9.00    22.99000     Na( 1.00)

     48 Sym. Ops., with inversion, found

[...]

     site n.     atom                  positions (alat units)
         1           Na  tau(   1) = (   0.0000000   0.0000000   0.0000000  )

[...]

     Number of k-points >= 100: set verbosity='high' to print them.

     The potential is recalculated from file :
     ./_ph0/na.fcc.save/charge-density.dat

     Starting wfc are    5 atomic +    4 random wfc

     Band Structure Calculation
     Davidson diagonalization with overlap

     ethr =  1.11E-10,  avg # of iterations = 16.5

     End of band structure calculation

     Number of k-points >= 100: set verbosity='high' to print the bands.

     the Fermi energy is     4.4908 ev

     Writing output data file na.fcc.save

[...]

      6 Sym.Ops. (no q -> -q+G )

[...]

     Mode symmetry, C_3v (3m)   point group:

[...]

     Representation     1      1 modes -A_1  L_1  To be done

     Representation     2      2 modes -E    L_3  To be done

[...]

     Representation #  1 mode #   1

[...]

     freq (  1 -  2) =         32.5  [cm-1]   --> E    L_3
     freq (  3 -  3) =        100.2  [cm-1]   --> A_1  L_1

[...]

     Representation     1      1 modes -A_1  L_1  To be done

     Representation     2      2 modes -E    L_3  To be done

[...]

     Mode symmetry, C_3v (3m)   point group:

     freq (  1 -  2) =         70.1  [cm-1]   --> E    L_3
     freq (  3 -  3) =        231.2  [cm-1]   --> A_1  L_1

[...]

     Mode symmetry, D_3d (-3m)  point group:

[...]

     Representation     1      1 modes -A_2u L_2'  To be done

     Representation     2      2 modes -E_u  L_3'  To be done

[...]

     freq (  1 -  2) =         78.3  [cm-1]   --> E_u  L_3'
     freq (  3 -  3) =        251.9  [cm-1]   --> A_2u L_2'

[...]

     Mode symmetry, C_4v (4mm)  point group:

[...]

     Representation     1      1 modes -A_1  G_1 D_1  To be done

     Representation     2      2 modes -E    G_5 D_5  To be done

[...]

     freq (  1 -  2) =         54.3  [cm-1]   --> E    G_5 D_5
     freq (  3 -  3) =         96.4  [cm-1]   --> A_1  G_1 D_1

[...]

     Mode symmetry, C_s (m)     point group:

[...]

     Representation     1      1 modes -A'  To be done

[...]

     Representation     3      1 modes -A''  To be done

[...]

     freq (  1 -  1) =         74.2  [cm-1]   --> A'
     freq (  2 -  2) =         74.9  [cm-1]   --> A''
     freq (  3 -  3) =        157.9  [cm-1]   --> A'

[...]

     freq (  1 -  1) =         86.9  [cm-1]   --> A''
     freq (  2 -  2) =         93.9  [cm-1]   --> A'
     freq (  3 -  3) =        219.1  [cm-1]   --> A'

[...]

     Mode symmetry, C_2v (mm2)  point group:

[...]

     freq (  1 -  1) =         35.6  [cm-1]   --> B_1  D_3  S_3
     freq (  2 -  2) =         78.7  [cm-1]   --> B_2  D_4  S_4
     freq (  3 -  3) =        141.9  [cm-1]   --> A_1  D_1  S_1

[...]

     Mode symmetry, C_4v (4mm)  point group:

     freq (  1 -  2) =        129.4  [cm-1]   --> E    G_5 D_5
     freq (  3 -  3) =        230.5  [cm-1]   --> A_1  G_1 D_1

[...]

     freq (  1 -  1) =        134.0  [cm-1]   --> A''
     freq (  2 -  2) =        164.0  [cm-1]   --> A'
     freq (  3 -  3) =        243.4  [cm-1]   --> A'

[...]

     17 Sym.Ops. (with q -> -q+G )

[...]

     Mode symmetry, D_4h(4/mmm) point group:

[...]

     Representation     1      1 modes -A_2u X_4' M_4'  To be done

     Representation     2      2 modes -E_u  X_5' M_5'  To be done

[...]

     Mode symmetry, D_4h(4/mmm) point group:

     freq (  1 -  2) =        142.1  [cm-1]   --> E_u  X_5' M_5'
     freq (  3 -  3) =        248.1  [cm-1]   --> A_2u X_4' M_4'

[...]

     No symmetry!

[...]

     Mode symmetry, C_1 (1)     point group:

[...]

     Representation     1      1 modes -A  To be done

[...]

     freq (  1 -  1) =        109.0  [cm-1]   --> A
     freq (  2 -  2) =        155.3  [cm-1]   --> A
     freq (  3 -  3) =        226.7  [cm-1]   --> A

[...]

     No symmetry!

[...]

     Representation     3      1 modes -A  To be done

[...]

     Mode symmetry, C_1 (1)     point group:

     freq (  1 -  1) =        138.7  [cm-1]   --> A
     freq (  2 -  2) =        189.1  [cm-1]   --> A
     freq (  3 -  3) =        230.6  [cm-1]   --> A

[...]

     Representation     2      1 modes -A'  To be done

     Representation     3      1 modes -A''  To be done

[...]

     Mode symmetry, C_s (m)     point group:

     freq (  1 -  1) =        123.3  [cm-1]   --> A'
     freq (  2 -  2) =        195.4  [cm-1]   --> A''
     freq (  3 -  3) =        216.1  [cm-1]   --> A'

[...]

     Mode symmetry, C_2v (mm2)  point group:

     freq (  1 -  1) =        149.2  [cm-1]   --> A_1  D_1  S_1
     freq (  2 -  2) =        170.3  [cm-1]   --> B_1  D_3  S_3
     freq (  3 -  3) =        244.3  [cm-1]   --> B_2  D_4  S_4

     Calculation of q =   -0.5000000  -1.0000000   0.0000000

[...]

   Info: using nr1, nr2, nr3 values from input

     bravais-lattice index     =            2
     lattice parameter (alat)  =       8.4162  a.u.
     unit-cell volume          =     149.0375 (a.u.)^3
     number of atoms/cell      =            1
     number of atomic types    =            1
     number of electrons       =         9.00
     number of Kohn-Sham states=            9
     kinetic-energy cutoff     =      40.0000  Ry
     charge density cutoff     =     320.0000  Ry
     Exchange-correlation      = SLA  PW   PBE  PBE ( 1  4  3  4 0 0)

[...]

     atomic species   valence    mass     pseudopotential
        Na             9.00    22.99000     Na( 1.00)

     48 Sym. Ops., with inversion, found

[...]

     site n.     atom                  positions (alat units)
         1           Na  tau(   1) = (   0.0000000   0.0000000   0.0000000  )

[...]

     Number of k-points >= 100: set verbosity='high' to print them.

     The potential is recalculated from file :
     ./_ph0/na.fcc.save/charge-density.dat

     Starting wfc are    5 atomic +    4 random wfc

     Band Structure Calculation
     Davidson diagonalization with overlap

     ethr =  1.11E-10,  avg # of iterations = 16.4

     End of band structure calculation

     Number of k-points >= 100: set verbosity='high' to print the bands.

     the Fermi energy is     4.4908 ev

     Writing output data file na.fcc.save

     bravais-lattice index     =            2
     lattice parameter (alat)  =       8.4162  a.u.
     unit-cell volume          =     149.0375 (a.u.)^3
     number of atoms/cell      =            1
     number of atomic types    =            1
     kinetic-energy cut-off    =      40.0000  Ry
     charge density cut-off    =     320.0000  Ry
     convergence threshold     =      1.0E-12
     beta                      =       0.7000
     number of iterations used =            4
     Exchange-correlation      = SLA  PW   PBE  PBE ( 1  4  3  4 0 0)

     celldm(1)=    8.41625  celldm(2)=    0.00000  celldm(3)=    0.00000
     celldm(4)=    0.00000  celldm(5)=    0.00000  celldm(6)=    0.00000

     crystal axes: (cart. coord. in units of alat)
               a(1) = ( -0.5000  0.0000  0.5000 )
               a(2) = (  0.0000  0.5000  0.5000 )
               a(3) = ( -0.5000  0.5000  0.0000 )

     reciprocal axes: (cart. coord. in units 2 pi/alat)
               b(1) = ( -1.0000 -1.0000  1.0000 )
               b(2) = (  1.0000  1.0000  1.0000 )
               b(3) = ( -1.0000  1.0000 -1.0000 )

     Atoms inside the unit cell:

     Cartesian axes

     site n.  atom      mass           positions (alat units)
        1     Na  22.9900   tau(    1) = (    0.00000    0.00000    0.00000  )

     Computing dynamical matrix for
                    q = (  -0.5000000  -1.0000000   0.0000000 )

      8 Sym.Ops. (no q -> -q+G )

     G cutoff =  574.1525  (   3583 G-vectors)     FFT grid: ( 36, 36, 36)
     G cutoff =  287.0762  (   1255 G-vectors)  smooth grid: ( 24, 24, 24)

     number of k points=  2744  Marzari-Vanderbilt smearing, width (Ry)=  0.0200

     PseudoPot. # 1 for Na read from file:
     /home/s1333534/quantum_espresso/qe-6.1/pseudo/Na_pbe_v1.uspp.F.UPF
     MD5 check sum: 76a99c7e9422403d3e93cbc85ab7bccb
     Pseudo is Ultrasoft, Zval =  9.0
     Generated by new atomic code, or converted to UPF format
     Using radial grid of  819 points,  5 beta functions with:
                l(1) =   0
                l(2) =   0
                l(3) =   1
                l(4) =   1
                l(5) =   2
     Q(r) pseudized with  8 coefficients,  rinner =    1.250   1.250   1.250
                                                       1.250   1.250

[...]

     Atomic displacements:
     There are   2 irreducible representations

     Representation     1      1 modes -B_2  X_3  W_2  To be done

     Representation     2      2 modes -E    X_5  W_3  To be done

     Alpha used in Ewald sum =   2.8000

     Representation #  1 mode #   1

[...]

     Representation #  2 modes #   2  3

     Self-consistent Calculation

[...]

      thresh= 9.024E-07 alpha_mix =  0.700 |ddv_scf|^2 =  4.430E-14

     End of self-consistent calculation

     Convergence has been achieved

     Number of q in the star =    6
     List of q in the star:
          1  -0.500000000  -1.000000000   0.000000000
          2   0.000000000   1.000000000   0.500000000
          3   0.500000000  -1.000000000   0.000000000
          4   0.000000000   1.000000000  -0.500000000
          5  -1.000000000  -0.500000000   0.000000000
          6   0.000000000  -0.500000000  -1.000000000

     Diagonalizing the dynamical matrix

     q = (   -0.500000000  -1.000000000   0.000000000 )

     freq (    1) =       4.784562 [THz] =     159.595825 [cm-1]
     freq (    2) =       6.239556 [THz] =     208.129194 [cm-1]
     freq (    3) =       6.239556 [THz] =     208.129194 [cm-1]

     Mode symmetry, D_2d (-42m) point group:

     freq (  1 -  1) =        159.6  [cm-1]   --> B_2  X_3  W_2
     freq (  2 -  3) =        208.1  [cm-1]   --> E    X_5  W_3

     General routines

     Parallel routines

     INITIALIZATION:

     DYNAMICAL MATRIX:

      General routines

   This run was terminated on:  17:24: 1  21Dec2017

   JOB DONE.