     Program PHONON v.6.1 (svn rev. 13369) starts on 21Dec2017 at 15:36:11

     Reading data from directory:
     ./na.bcc.save

   Info: using nr1, nr2, nr3 values from input

[...]

     IMPORTANT: XC functional enforced from input :
     Exchange-correlation      = SLA  PW   PBE  PBE ( 1  4  3  4 0 0)
     Any further DFT definition will be discarded
     Please, verify this is what you really want

     Dynamical matrices for ( 8, 8, 8)  uniform grid of q-points
     (  29q-points):
       N         xq(1)         xq(2)         xq(3)
       1   0.000000000   0.000000000   0.000000000
       2   0.000000000  -0.125000000   0.125000000
       3   0.000000000  -0.250000000   0.250000000
       4   0.000000000  -0.375000000   0.375000000
       5   0.000000000   0.500000000  -0.500000000
       6  -0.125000000  -0.125000000   0.250000000
       7  -0.125000000  -0.250000000   0.375000000
       8  -0.125000000   0.625000000  -0.500000000
       9  -0.250000000   0.750000000  -0.500000000
      10  -0.250000000   0.625000000  -0.375000000
      11   0.000000000   0.000000000   0.250000000
      12   0.000000000  -0.125000000   0.375000000
      13   0.000000000  -0.250000000   0.500000000
      14   0.000000000   0.625000000  -0.375000000
      15  -0.125000000  -0.125000000   0.500000000
      16  -0.125000000   0.750000000  -0.375000000
      17  -0.250000000   0.250000000   0.250000000
      18  -0.250000000   0.750000000  -0.250000000
      19   0.625000000  -0.625000000   0.250000000
      20   0.500000000  -0.500000000   0.250000000
      21   0.500000000  -0.625000000   0.375000000
      22   0.000000000   0.000000000   0.500000000
      23   0.000000000  -0.125000000   0.625000000
      24   0.000000000   0.750000000  -0.250000000
      25  -0.125000000   0.875000000  -0.250000000
      26   0.500000000  -0.500000000   0.500000000
      27   0.000000000   0.000000000   0.750000000
      28   0.000000000   0.875000000  -0.125000000
      29   0.000000000   0.000000000  -1.000000000

     Calculation of q =    0.0000000   0.0000000   0.0000000

     bravais-lattice index     =            3
     lattice parameter (alat)  =       8.0017  a.u.
     unit-cell volume          =     256.1633 (a.u.)^3
     number of atoms/cell      =            1
     number of atomic types    =            1
     kinetic-energy cut-off    =      40.0000  Ry
     charge density cut-off    =     320.0000  Ry
     convergence threshold     =      1.0E-12
     beta                      =       0.7000
     number of iterations used =            4
     Exchange-correlation      = SLA  PW   PBE  PBE ( 1  4  3  4 0 0)

     celldm(1)=    8.00170  celldm(2)=    0.00000  celldm(3)=    0.00000
     celldm(4)=    0.00000  celldm(5)=    0.00000  celldm(6)=    0.00000

     crystal axes: (cart. coord. in units of alat)
               a(1) = (  0.5000  0.5000  0.5000 )
               a(2) = ( -0.5000  0.5000  0.5000 )
               a(3) = ( -0.5000 -0.5000  0.5000 )

     reciprocal axes: (cart. coord. in units 2 pi/alat)
               b(1) = (  1.0000  0.0000  1.0000 )
               b(2) = ( -1.0000  1.0000  0.0000 )
               b(3) = (  0.0000 -1.0000  1.0000 )

     Atoms inside the unit cell:

     Cartesian axes

     site n.  atom      mass           positions (alat units)
        1     Na  22.9900   tau(    1) = (    0.00000    0.00000    0.00000  )

     Computing dynamical matrix for
                    q = (   0.0000000   0.0000000   0.0000000 )

     49 Sym.Ops. (with q -> -q+G )

     G cutoff =  518.9850  (   6210 G-vectors)     FFT grid: ( 40, 40, 40)
     G cutoff =  259.4925  (   2172 G-vectors)  smooth grid: ( 27, 27, 27)

     number of k points=   100  Marzari-Vanderbilt smearing, width (Ry)=  0.0200

     PseudoPot. # 1 for Na read from file:
     /home/s1333534/quantum_espresso/qe-6.1/pseudo/Na_pbe_v1.uspp.F.UPF
     MD5 check sum: 76a99c7e9422403d3e93cbc85ab7bccb
     Pseudo is Ultrasoft, Zval =  9.0
     Generated by new atomic code, or converted to UPF format
     Using radial grid of  819 points,  5 beta functions with:
                l(1) =   0
                l(2) =   0
                l(3) =   1
                l(4) =   1
                l(5) =   2
     Q(r) pseudized with  8 coefficients,  rinner =    1.250   1.250   1.250
                                                       1.250   1.250

     Mode symmetry, O_h (m-3m)  point group:

     Atomic displacements:
     There are   1 irreducible representations

     Representation     1      3 modes -T_1u G_15  G_4-  To be done

     Alpha used in Ewald sum =   2.8000

     Representation #  1 modes #   1  2  3

     Self-consistent Calculation

     Pert. #  1: Fermi energy shift (Ry) =    -1.7922E-24    -1.2539E-37
     Pert. #  2: Fermi energy shift (Ry) =    -2.7573E-25     2.9779E-37
     Pert. #  3: Fermi energy shift (Ry) =     0.0000E+00    -4.7020E-38

      thresh= 1.000E-02 alpha_mix =  0.700 |ddv_scf|^2 =  1.394E-06

[...]

     Pert. #  1: Fermi energy shift (Ry) =    -9.9089E-26    -1.7219E-41
     Pert. #  2: Fermi energy shift (Ry) =    -5.8161E-26     6.3137E-41
     Pert. #  3: Fermi energy shift (Ry) =     1.7233E-25     4.0178E-41

[...]

     End of self-consistent calculation

     Convergence has been achieved

     Number of q in the star =    1
     List of q in the star:
          1   0.000000000   0.000000000   0.000000000

     Diagonalizing the dynamical matrix

     q = (    0.000000000   0.000000000   0.000000000 )

     freq (    1) =       0.441198 [THz] =      14.716797 [cm-1]
     freq (    2) =       0.441198 [THz] =      14.716797 [cm-1]
     freq (    3) =       0.441198 [THz] =      14.716797 [cm-1]

[...]

     freq (  1 -  3) =         14.7  [cm-1]   --> T_1u G_15  G_4- I

[...]

     bravais-lattice index     =            3
     lattice parameter (alat)  =       8.0017  a.u.
     unit-cell volume          =     256.1633 (a.u.)^3
     number of atoms/cell      =            1
     number of atomic types    =            1
     number of electrons       =         9.00
     number of Kohn-Sham states=            9
     kinetic-energy cutoff     =      40.0000  Ry
     charge density cutoff     =     320.0000  Ry
     Exchange-correlation      = SLA  PW   PBE  PBE ( 1  4  3  4 0 0)

[...]

     atomic species   valence    mass     pseudopotential
        Na             9.00    22.99000     Na( 1.00)

     48 Sym. Ops., with inversion, found

[...]

     site n.     atom                  positions (alat units)
         1           Na  tau(   1) = (   0.0000000   0.0000000   0.0000000  )

[...]

     Number of k-points >= 100: set verbosity='high' to print them.

     The potential is recalculated from file :
     ./_ph0/na.bcc.save/charge-density.dat

     Starting wfc are    5 atomic +    4 random wfc

     Band Structure Calculation
     Davidson diagonalization with overlap

     ethr =  1.11E-10,  avg # of iterations = 21.7

     End of band structure calculation

     Number of k-points >= 100: set verbosity='high' to print the bands.

     the Fermi energy is     1.5165 ev

     Writing output data file na.bcc.save

[...]

      4 Sym.Ops. (no q -> -q+G )

[...]

     Mode symmetry, C_2v (mm2)  point group:

[...]

     Representation     1      1 modes -A_1  D_1  S_1  To be done

[...]

     Representation #  1 mode #   1

[...]

     freq (  1 -  1) =          7.9  [cm-1]   --> B_1  D_3  S_3
     freq (  2 -  2) =         27.6  [cm-1]   --> B_2  D_4  S_4
     freq (  3 -  3) =         63.2  [cm-1]   --> A_1  D_1  S_1

[...]

     Mode symmetry, D_2h (mmm)  point group:

[...]

     Representation     1      1 modes -B_1u  To be done

[...]

     Representation     3      1 modes -B_3u  To be done

[...]

     Mode symmetry, D_2h (mmm)  point group:

     freq (  1 -  1) =         19.5  [cm-1]   --> B_2u
     freq (  2 -  2) =         79.3  [cm-1]   --> B_1u
     freq (  3 -  3) =        127.6  [cm-1]   --> B_3u

[...]

     Mode symmetry, C_s (m)     point group:

[...]

     Representation     1      1 modes -A'  To be done

[...]

     Representation     3      1 modes -A''  To be done

[...]

     freq (  1 -  1) =         43.9  [cm-1]   --> A'
     freq (  2 -  2) =         46.6  [cm-1]   --> A''
     freq (  3 -  3) =         87.6  [cm-1]   --> A'

[...]

     No symmetry!

[...]

     Mode symmetry, C_1 (1)     point group:

[...]

     Representation     1      1 modes -A  To be done

[...]

     freq (  1 -  1) =         60.0  [cm-1]   --> A
     freq (  2 -  2) =         78.2  [cm-1]   --> A
     freq (  3 -  3) =        115.8  [cm-1]   --> A

[...]

     freq (  1 -  1) =         65.9  [cm-1]   --> A'
     freq (  2 -  2) =        110.5  [cm-1]   --> A'
     freq (  3 -  3) =        140.4  [cm-1]   --> A''

[...]

     Mode symmetry, C_4v (4mm)  point group:

[...]

     Representation     2      2 modes -E    G_5 D_5  To be done

[...]

     freq (  1 -  2) =         45.1  [cm-1]   --> E    G_5 D_5
     freq (  3 -  3) =         61.7  [cm-1]   --> A_1  G_1 D_1

[...]

     freq (  1 -  1) =         69.3  [cm-1]   --> A''
     freq (  2 -  2) =         76.5  [cm-1]   --> A'
     freq (  3 -  3) =         94.0  [cm-1]   --> A'

[...]

     No symmetry!

[...]

     Representation     3      1 modes -A  To be done

[...]

     Mode symmetry, C_1 (1)     point group:

     freq (  1 -  1) =         75.4  [cm-1]   --> A
     freq (  2 -  2) =        112.0  [cm-1]   --> A
     freq (  3 -  3) =        138.6  [cm-1]   --> A

[...]

     Mode symmetry, C_3v (3m)   point group:

[...]

     Representation     1      1 modes -A_1  L_1  To be done

     Representation     2      2 modes -E    L_3  To be done

[...]

     freq (  1 -  2) =         52.3  [cm-1]   --> E    L_3
     freq (  3 -  3) =        104.0  [cm-1]   --> A_1  L_1

[...]

     Representation     1      1 modes -A_1  L_1  To be done

     Representation     2      2 modes -E    L_3  To be done

[...]

     Mode symmetry, C_3v (3m)   point group:

     freq (  1 -  1) =         99.0  [cm-1]   --> A_1  L_1
     freq (  2 -  3) =        133.7  [cm-1]   --> E    L_3

[...]

     freq (  1 -  1) =         99.3  [cm-1]   --> A''
     freq (  2 -  2) =        104.1  [cm-1]   --> A'
     freq (  3 -  3) =        124.8  [cm-1]   --> A'

[...]

     Representation     2      1 modes -A'  To be done

     Representation     3      1 modes -A''  To be done

[...]

     Mode symmetry, C_s (m)     point group:

     freq (  1 -  1) =         99.8  [cm-1]   --> A'
     freq (  2 -  2) =        115.0  [cm-1]   --> A''
     freq (  3 -  3) =        128.4  [cm-1]   --> A'

[...]

     Mode symmetry, T_d (-43m)  point group:

[...]

     Mode symmetry, T_d (-43m)  point group:

[...]

     Representation     2      2 modes -E    G_5 D_5  To be done

[...]

     Mode symmetry, C_4v (4mm)  point group:

     freq (  1 -  2) =        111.0  [cm-1]   --> E    G_5 D_5
     freq (  3 -  3) =        120.6  [cm-1]   --> A_1  G_1 D_1

[...]

      4 Sym.Ops. (no q -> -q+G )

[...]

     Representation     3      1 modes -B_2  D_4  S_4  To be done

[...]

     Representation #  3 mode #   3

[...]

     Mode symmetry, C_2v (mm2)  point group:

     freq (  1 -  1) =        115.1  [cm-1]   --> B_1  D_3  S_3
     freq (  2 -  2) =        123.6  [cm-1]   --> B_2  D_4  S_4
     freq (  3 -  3) =        135.5  [cm-1]   --> A_1  D_1  S_1

     Calculation of q =    0.0000000   0.0000000  -1.0000000

[...]

   Info: using nr1, nr2, nr3 values from input

     bravais-lattice index     =            3
     lattice parameter (alat)  =       8.0017  a.u.
     unit-cell volume          =     256.1633 (a.u.)^3
     number of atoms/cell      =            1
     number of atomic types    =            1
     number of electrons       =         9.00
     number of Kohn-Sham states=            9
     kinetic-energy cutoff     =      40.0000  Ry
     charge density cutoff     =     320.0000  Ry
     Exchange-correlation      = SLA  PW   PBE  PBE ( 1  4  3  4 0 0)

[...]

     atomic species   valence    mass     pseudopotential
        Na             9.00    22.99000     Na( 1.00)

     48 Sym. Ops., with inversion, found

[...]

     site n.     atom                  positions (alat units)
         1           Na  tau(   1) = (   0.0000000   0.0000000   0.0000000  )

[...]

     Number of k-points >= 100: set verbosity='high' to print them.

     The potential is recalculated from file :
     ./_ph0/na.bcc.save/charge-density.dat

     Starting wfc are    5 atomic +    4 random wfc

     Band Structure Calculation
     Davidson diagonalization with overlap

     ethr =  1.11E-10,  avg # of iterations = 21.8

     End of band structure calculation

     Number of k-points >= 100: set verbosity='high' to print the bands.

     the Fermi energy is     1.5165 ev

     Writing output data file na.bcc.save

     bravais-lattice index     =            3
     lattice parameter (alat)  =       8.0017  a.u.
     unit-cell volume          =     256.1633 (a.u.)^3
     number of atoms/cell      =            1
     number of atomic types    =            1
     kinetic-energy cut-off    =      40.0000  Ry
     charge density cut-off    =     320.0000  Ry
     convergence threshold     =      1.0E-12
     beta                      =       0.7000
     number of iterations used =            4
     Exchange-correlation      = SLA  PW   PBE  PBE ( 1  4  3  4 0 0)

     celldm(1)=    8.00170  celldm(2)=    0.00000  celldm(3)=    0.00000
     celldm(4)=    0.00000  celldm(5)=    0.00000  celldm(6)=    0.00000

     crystal axes: (cart. coord. in units of alat)
               a(1) = (  0.5000  0.5000  0.5000 )
               a(2) = ( -0.5000  0.5000  0.5000 )
               a(3) = ( -0.5000 -0.5000  0.5000 )

     reciprocal axes: (cart. coord. in units 2 pi/alat)
               b(1) = (  1.0000  0.0000  1.0000 )
               b(2) = ( -1.0000  1.0000  0.0000 )
               b(3) = (  0.0000 -1.0000  1.0000 )

     Atoms inside the unit cell:

     Cartesian axes

     site n.  atom      mass           positions (alat units)
        1     Na  22.9900   tau(    1) = (    0.00000    0.00000    0.00000  )

     Computing dynamical matrix for
                    q = (   0.0000000   0.0000000  -1.0000000 )

     49 Sym.Ops. (with q -> -q+G )

     G cutoff =  518.9850  (   6209 G-vectors)     FFT grid: ( 40, 40, 40)
     G cutoff =  259.4925  (   2172 G-vectors)  smooth grid: ( 27, 27, 27)

     number of k points=   200  Marzari-Vanderbilt smearing, width (Ry)=  0.0200

     PseudoPot. # 1 for Na read from file:
     /home/s1333534/quantum_espresso/qe-6.1/pseudo/Na_pbe_v1.uspp.F.UPF
     MD5 check sum: 76a99c7e9422403d3e93cbc85ab7bccb
     Pseudo is Ultrasoft, Zval =  9.0
     Generated by new atomic code, or converted to UPF format
     Using radial grid of  819 points,  5 beta functions with:
                l(1) =   0
                l(2) =   0
                l(3) =   1
                l(4) =   1
                l(5) =   2
     Q(r) pseudized with  8 coefficients,  rinner =    1.250   1.250   1.250
                                                       1.250   1.250

[...]

     Atomic displacements:
     There are   1 irreducible representations

     Representation     1      3 modes -T_1u G_15  G_4-  To be done

     Alpha used in Ewald sum =   2.8000

     Representation #  1 modes #   1  2  3

     Self-consistent Calculation

[...]

      thresh= 3.660E-07 alpha_mix =  0.700 |ddv_scf|^2 =  4.366E-15

     End of self-consistent calculation

     Convergence has been achieved

     Number of q in the star =    1
     List of q in the star:
          1   0.000000000   0.000000000  -1.000000000

     Diagonalizing the dynamical matrix

     q = (    0.000000000   0.000000000  -1.000000000 )

     freq (    1) =       3.616296 [THz] =     120.626656 [cm-1]
     freq (    2) =       3.616296 [THz] =     120.626656 [cm-1]
     freq (    3) =       3.616296 [THz] =     120.626656 [cm-1]

     Mode symmetry, O_h (m-3m)  point group:

     freq (  1 -  3) =        120.6  [cm-1]   --> T_1u G_15  G_4-

     General routines

     Parallel routines

     INITIALIZATION:

     DYNAMICAL MATRIX:

      General routines

   This run was terminated on:  18: 0:45  21Dec2017

   JOB DONE.