     Program PWSCF v.6.1 (svn rev. 13369) starts on 20Dec2017 at 16:48: 5

     Current dimensions of program PWSCF are:
     Max number of different atomic species (ntypx) = 10
     Max number of k-points (npk) =  40000
     Max angular momentum in pseudopotentials (lmaxx) =  3

     Subspace diagonalization in iterative solution of the eigenvalue problem:
     a serial algorithm will be used

     bravais-lattice index     =            3
     lattice parameter (alat)  =       8.1815  a.u.
     unit-cell volume          =     273.8238 (a.u.)^3
     number of atoms/cell      =            1
     number of atomic types    =            1
     number of electrons       =         9.00
     number of Kohn-Sham states=            9
     kinetic-energy cutoff     =      40.0000  Ry
     charge density cutoff     =     320.0000  Ry
     convergence threshold     =      1.0E-08
     mixing beta               =       0.7000
     number of iterations used =            8  plain     mixing
     Exchange-correlation      = SLA  PW   PBE  PBE ( 1  4  3  4 0 0)
     nstep                     =           50

     celldm(1)=   8.181515  celldm(2)=   0.000000  celldm(3)=   0.000000
     celldm(4)=   0.000000  celldm(5)=   0.000000  celldm(6)=   0.000000

     crystal axes: (cart. coord. in units of alat)
               a(1) = (   0.500000   0.500000   0.500000 )
               a(2) = (  -0.500000   0.500000   0.500000 )
               a(3) = (  -0.500000  -0.500000   0.500000 )

     reciprocal axes: (cart. coord. in units 2 pi/alat)
               b(1) = (  1.000000  0.000000  1.000000 )
               b(2) = ( -1.000000  1.000000  0.000000 )
               b(3) = (  0.000000 -1.000000  1.000000 )

     PseudoPot. # 1 for Na read from file:
     /home/s1333534/quantum_espresso/qe-6.1/pseudo/Na_pbe_v1.uspp.F.UPF
     MD5 check sum: 76a99c7e9422403d3e93cbc85ab7bccb
     Pseudo is Ultrasoft, Zval =  9.0
     Generated by new atomic code, or converted to UPF format
     Using radial grid of  819 points,  5 beta functions with:
                l(1) =   0
                l(2) =   0
                l(3) =   1
                l(4) =   1
                l(5) =   2
     Q(r) pseudized with  8 coefficients,  rinner =    1.250   1.250   1.250
                                                       1.250   1.250

     atomic species   valence    mass     pseudopotential
        Na             9.00    22.99000     Na( 1.00)

     48 Sym. Ops., with inversion, found

   Cartesian axes

     site n.     atom                  positions (alat units)
         1           Na  tau(   1) = (   0.0000000   0.0000000   0.0000000  )

     number of k points=   250  Marzari-Vanderbilt smearing, width (Ry)=  0.0200

     Number of k-points >= 100: set verbosity='high' to print them.

     Initial potential from superposition of free atoms

     starting charge    8.99371, renormalised to    9.00000
     Starting wfc are    5 randomized atomic wfcs +    4 random wfc

     Self-consistent Calculation

     iteration #  1     ecut=    40.00 Ry     beta=0.70
     Davidson diagonalization with overlap
     ethr =  1.00E-02,  avg # of iterations =  5.9

     Threshold (ethr) on eigenvalues was too large:
     Diagonalizing with lowered threshold

     Davidson diagonalization with overlap
     ethr =  9.81E-06,  avg # of iterations =  4.9

     total energy              =     -95.10588971 Ry
     Harris-Foulkes estimate   =     -95.10604769 Ry
     estimated scf accuracy    <       0.00088236 Ry

[...]

     End of self-consistent calculation

     Number of k-points >= 100: set verbosity='high' to print the bands.

     the Fermi energy is     1.2487 ev

!    total energy              =     -95.10599631 Ry
     Harris-Foulkes estimate   =     -95.10599630 Ry
     estimated scf accuracy    <          1.6E-09 Ry

     The total energy is the sum of the following terms:

     one-electron contribution =     -90.07604153 Ry
     hartree contribution      =      45.25706544 Ry
     xc contribution           =     -14.25718773 Ry
     ewald contribution        =     -36.02974439 Ry
     smearing contrib. (-TS)   =      -0.00008810 Ry

     convergence has been achieved in   5 iterations

     Forces acting on atoms (cartesian axes, Ry/au):

     atom    1 type  1   force =     0.00000000    0.00000000    0.00000000

     Total force =     0.000000     Total SCF correction =     0.000000

     Computing stress (Cartesian axis) and pressure

          total   stress  (Ry/bohr**3)                   (kbar)     P=   -8.42
  -0.00005726  -0.00000000   0.00000000         -8.42     -0.00      0.00
  -0.00000000  -0.00005726   0.00000000         -0.00     -8.42      0.00
   0.00000000   0.00000000  -0.00005726          0.00      0.00     -8.42

     BFGS Geometry Optimization

     number of scf cycles    =   1
     number of bfgs steps    =   0

     enthalpy new            =     -95.1246104774 Ry

     new trust radius        =       0.0008866233 bohr
     new conv_thr            =       0.0000000100 Ry

     new unit-cell volume =    274.04398 a.u.^3 (    40.60913 Ang^3 )
     density =      0.94008 g/cm^3

CELL_PARAMETERS (alat=  8.18151542)
   0.500133950   0.500133950   0.500133950
  -0.500133950   0.500133950   0.500133950
  -0.500133950  -0.500133950   0.500133950

ATOMIC_POSITIONS (crystal)
Na       0.000000000   0.000000000   0.000000000

     Writing output data file na.bcc.save
     NEW-OLD atomic charge density approx. for the potential
     extrapolated charge    9.00722, renormalised to    9.00000

[...]

     enthalpy old            =     -95.1246104774 Ry
     enthalpy new            =     -95.1246125153 Ry

     CASE: enthalpy_new < enthalpy_old

     WARNING: bfgs curvature condition failed, Theta= 0.616
     uphill step: resetting bfgs history

[...]

     WARNING: bfgs curvature condition failed, Theta= 0.906
     new trust radius        =       0.0021954948 bohr
     new conv_thr            =            1.0E-10 Ry

[...]

     number of scf cycles    =   7
     number of bfgs steps    =   6

     enthalpy old            =     -95.1246272574 Ry
     enthalpy new            =     -95.1246332912 Ry

     CASE: enthalpy_new < enthalpy_old

     new trust radius        =       0.0074214426 bohr
     new conv_thr            =            1.0E-10 Ry

     new unit-cell volume =    279.10828 a.u.^3 (    41.35958 Ang^3 )
     density =      0.92302 g/cm^3

[...]

ATOMIC_POSITIONS (crystal)
Na       0.000000000   0.000000000   0.000000000

     Writing output data file na.bcc.save
     NEW-OLD atomic charge density approx. for the potential
     extrapolated charge    9.05986, renormalised to    9.00000

[...]

     bfgs converged in   8 scf cycles and   7 bfgs steps
     (criteria: energy <  1.0E-04 Ry, force <  1.0E-03Ry/Bohr, cell <  5.0E-01kbar)

     End of BFGS Geometry Optimization

     Final enthalpy =     -95.1246379000 Ry
Begin final coordinates
     new unit-cell volume =    279.10828 a.u.^3 (    41.35958 Ang^3 )
     density =      0.92302 g/cm^3

CELL_PARAMETERS (alat=  8.18151542)
   0.503195969   0.503195969   0.503195969
  -0.503195969   0.503195969   0.503195969
  -0.503195969  -0.503195969   0.503195969

ATOMIC_POSITIONS (crystal)
Na       0.000000000   0.000000000   0.000000000
End final coordinates

     A final scf calculation at the relaxed structure.
     The G-vectors are recalculated for the final unit cell
     Results may differ from those at the preceding step.

     bravais-lattice index     =            3
     lattice parameter (alat)  =       8.1815  a.u.
     unit-cell volume          =     279.1083 (a.u.)^3
     number of atoms/cell      =            1
     number of atomic types    =            1
     number of electrons       =         9.00
     number of Kohn-Sham states=            9
     kinetic-energy cutoff     =      40.0000  Ry
     charge density cutoff     =     320.0000  Ry
     convergence threshold     =      1.0E-10
     mixing beta               =       0.7000
     number of iterations used =            8  plain     mixing
     Exchange-correlation      = SLA  PW   PBE  PBE ( 1  4  3  4 0 0)

     celldm(1)=   8.181515  celldm(2)=   0.000000  celldm(3)=   0.000000
     celldm(4)=   0.000000  celldm(5)=   0.000000  celldm(6)=   0.000000

     crystal axes: (cart. coord. in units of alat)
               a(1) = (   0.503196   0.503196   0.503196 )
               a(2) = (  -0.503196   0.503196   0.503196 )
               a(3) = (  -0.503196  -0.503196   0.503196 )

     reciprocal axes: (cart. coord. in units 2 pi/alat)
               b(1) = (  0.993649 -0.000000  0.993649 )
               b(2) = ( -0.993649  0.993649 -0.000000 )
               b(3) = (  0.000000 -0.993649  0.993649 )

     PseudoPot. # 1 for Na read from file:
     /home/s1333534/quantum_espresso/qe-6.1/pseudo/Na_pbe_v1.uspp.F.UPF
     MD5 check sum: 76a99c7e9422403d3e93cbc85ab7bccb
     Pseudo is Ultrasoft, Zval =  9.0
     Generated by new atomic code, or converted to UPF format
     Using radial grid of  819 points,  5 beta functions with:
                l(1) =   0
                l(2) =   0
                l(3) =   1
                l(4) =   1
                l(5) =   2
     Q(r) pseudized with  8 coefficients,  rinner =    1.250   1.250   1.250
                                                       1.250   1.250

     atomic species   valence    mass     pseudopotential
        Na             9.00    22.99000     Na( 1.00)

     48 Sym. Ops., with inversion, found

   Cartesian axes

     site n.     atom                  positions (alat units)
         1           Na  tau(   1) = (   0.0000000   0.0000000   0.0000000  )

     number of k points=   250  Marzari-Vanderbilt smearing, width (Ry)=  0.0200

     Number of k-points >= 100: set verbosity='high' to print them.

     Initial potential from superposition of free atoms

     starting charge    8.99371, renormalised to    9.00000
     Starting wfc are    5 randomized atomic wfcs +    4 random wfc

     Writing output data file na.bcc.save

     Self-consistent Calculation

     iteration #  1     ecut=    40.00 Ry     beta=0.70
     Davidson diagonalization with overlap
     c_bands:  1 eigenvalues not converged
     c_bands:  1 eigenvalues not converged
     c_bands:  1 eigenvalues not converged
     c_bands:  1 eigenvalues not converged
     c_bands:  1 eigenvalues not converged
     c_bands:  1 eigenvalues not converged
     c_bands:  1 eigenvalues not converged
     ethr =  1.00E-06,  avg # of iterations = 12.6

[...]

     total energy              =     -95.10576109 Ry
     Harris-Foulkes estimate   =     -95.10576109 Ry
     estimated scf accuracy    <          1.1E-10 Ry

     iteration #  7     ecut=    40.00 Ry     beta=0.70
     Davidson diagonalization with overlap
     ethr =  1.24E-12,  avg # of iterations =  2.0

     End of self-consistent calculation

     Number of k-points >= 100: set verbosity='high' to print the bands.

     the Fermi energy is     1.1773 ev

!    total energy              =     -95.10576109 Ry
     Harris-Foulkes estimate   =     -95.10576109 Ry
     estimated scf accuracy    <          1.4E-12 Ry

     The total energy is the sum of the following terms:

     one-electron contribution =     -90.47915694 Ry
     hartree contribution      =      45.42925784 Ry
     xc contribution           =     -14.25486760 Ry
     ewald contribution        =     -35.80090718 Ry
     smearing contrib. (-TS)   =      -0.00008721 Ry

     convergence has been achieved in   7 iterations

     Forces acting on atoms (cartesian axes, Ry/au):

     atom    1 type  1   force =     0.00000000    0.00000000    0.00000000

     Total force =     0.000000     Total SCF correction =     0.000000

     Computing stress (Cartesian axis) and pressure

          total   stress  (Ry/bohr**3)                   (kbar)     P=   -9.56
  -0.00006498   0.00000000  -0.00000000         -9.56      0.00     -0.00
   0.00000000  -0.00006498   0.00000000          0.00     -9.56      0.00
  -0.00000000   0.00000000  -0.00006498         -0.00      0.00     -9.56

     Writing output data file na.bcc.save

     General routines

     Parallel routines

   This run was terminated on:  16:51:38  20Dec2017

   JOB DONE.