     Program PHONON v.5.4.0 starts on  7Apr2018 at 13:57:53

     Reading data from directory:
     ./silicon/silicon.10.328.save

   Info: using nr1, nr2, nr3 values from input

   Info: using nr1, nr2, nr3 values from input

     IMPORTANT: XC functional enforced from input :
     Exchange-correlation      = SLA  PW   PBE  PBE ( 1  4  3  4 0 0)
     Any further DFT definition will be discarded
     Please, verify this is what you really want

     Dynamical matrices for ( 6, 6, 6)  uniform grid of q-points
     (  16q-points):
       N         xq(1)         xq(2)         xq(3)
       1   0.000000000   0.000000000   0.000000000
       2  -0.166666667   0.166666667  -0.166666667
       3  -0.333333333   0.333333333  -0.333333333
       4   0.500000000  -0.500000000   0.500000000
       5   0.000000000   0.333333333   0.000000000
       6  -0.166666667   0.500000000  -0.166666667
       7   0.666666667  -0.333333333   0.666666667
       8   0.500000000  -0.166666667   0.500000000
       9   0.333333333   0.000000000   0.333333333
      10   0.000000000   0.666666667   0.000000000
      11   0.833333333  -0.166666667   0.833333333
      12   0.666666667  -0.000000000   0.666666667
      13   0.000000000  -1.000000000   0.000000000
      14   0.666666667  -0.333333333   1.000000000
      15   0.500000000  -0.166666667   0.833333333
      16  -0.333333333  -1.000000000   0.000000000

     Calculation of q =    0.0000000   0.0000000   0.0000000

     bravais-lattice index     =            2
     lattice parameter (alat)  =      10.3280  a.u.
     unit-cell volume          =     275.4157 (a.u.)^3
     number of atoms/cell      =            2
     number of atomic types    =            1
     kinetic-energy cut-off    =      30.0000  Ry
     charge density cut-off    =     240.0000  Ry
     convergence threshold     =      1.0E-16
     beta                      =       0.7000
     number of iterations used =            4
     Exchange-correlation      = SLA  PW   PBE  PBE ( 1  4  3  4 0 0)

     celldm(1)=   10.32800  celldm(2)=    0.00000  celldm(3)=    0.00000
     celldm(4)=    0.00000  celldm(5)=    0.00000  celldm(6)=    0.00000

     crystal axes: (cart. coord. in units of alat)
               a(1) = ( -0.5000  0.0000  0.5000 )
               a(2) = (  0.0000  0.5000  0.5000 )
               a(3) = ( -0.5000  0.5000  0.0000 )

     reciprocal axes: (cart. coord. in units 2 pi/alat)
               b(1) = ( -1.0000 -1.0000  1.0000 )
               b(2) = (  1.0000  1.0000  1.0000 )
               b(3) = ( -1.0000  1.0000 -1.0000 )

     Atoms inside the unit cell:

     Cartesian axes

     site n.  atom      mass           positions (alat units)
        1     Si  28.0860   tau(    1) = (    0.00000    0.00000    0.00000  )
        2     Si  28.0860   tau(    2) = (    0.25000    0.25000    0.25000  )

     Computing dynamical matrix for
                    q = (   0.0000000   0.0000000   0.0000000 )

     49 Sym.Ops. (with q -> -q+G )

     G cutoff =  648.4612  (   1079 G-vectors)     FFT grid: ( 40, 40, 40)
     G cutoff =  324.2306  (    388 G-vectors)  smooth grid: ( 25, 25, 25)
     number of k points=   182

     PseudoPot. # 1 for Si read from file:
     ./si_pbe_v1.uspp.F.UPF.txt
     MD5 check sum: a056efeee980c13900f22a371efd63c1
     Pseudo is Ultrasoft + core correction, Zval =  4.0
     Generated by new atomic code, or converted to UPF format
     Using radial grid of  899 points,  6 beta functions with:
                l(1) =   0
                l(2) =   0
                l(3) =   1
                l(4) =   1
                l(5) =   2
                l(6) =   2
     Q(r) pseudized with  8 coefficients,  rinner =    0.900   0.900   0.900
                                                       0.900   0.900

     Mode symmetry, O_h (m-3m)  point group:

     Electric field:
     Dielectric constant
     Born effective charges in two ways

     Atomic displacements:
     There are   2 irreducible representations

     Representation     1      3 modes -T_2g G_25' G_5+  To be done

     Representation     2      3 modes -T_1u G_15  G_4-  To be done

     Alpha used in Ewald sum =   2.5000

     Electric Fields Calculation

      thresh= 1.000E-02 alpha_mix =  0.700 |ddv_scf|^2 =  6.810E-08

[...]

     End of electric fields calculation

          Dielectric constant in cartesian axis

          (      12.970040076      -0.000000000      -0.000000000 )
          (      -0.000000000      12.970040076       0.000000000 )
          (       0.000000000      -0.000000000      12.970040076 )

          Effective charges (d Force / dE) in cartesian axis

           atom      1   Si
      Ex  (        0.01942        0.00000        0.00000 )
      Ey  (        0.00000        0.01942       -0.00000 )
      Ez  (        0.00000       -0.00000        0.01942 )
           atom      2   Si
      Ex  (        0.01942       -0.00000       -0.00000 )
      Ey  (       -0.00000        0.01942        0.00000 )
      Ez  (       -0.00000        0.00000        0.01942 )

     Representation #  1 modes #   1  2  3

     Self-consistent Calculation

[...]

     End of self-consistent calculation

     Convergence has been achieved

[...]

     Number of q in the star =    1
     List of q in the star:
          1   0.000000000   0.000000000   0.000000000

          Dielectric constant in cartesian axis

          (      12.970040076      -0.000000000      -0.000000000 )
          (      -0.000000000      12.970040076       0.000000000 )
          (       0.000000000      -0.000000000      12.970040076 )

          Effective charges (d Force / dE) in cartesian axis

[...]

          Effective charges (d P / du) in cartesian axis

           atom      1   Si
      Px  (       -0.00052        0.00000        0.00000 )
      Py  (        0.00000       -0.00052        0.00000 )
      Pz  (        0.00000       -0.00000       -0.00052 )
           atom      2   Si
      Px  (       -0.00052        0.00000        0.00000 )
      Py  (        0.00000       -0.00052       -0.00000 )
      Pz  (        0.00000        0.00000       -0.00052 )

     Diagonalizing the dynamical matrix

     q = (    0.000000000   0.000000000   0.000000000 )

     freq (    1) =      -0.122266 [THz] =      -4.078352 [cm-1]
     freq (    2) =      -0.122266 [THz] =      -4.078352 [cm-1]
     freq (    3) =      -0.122266 [THz] =      -4.078352 [cm-1]
     freq (    4) =      15.103945 [THz] =     503.813367 [cm-1]
     freq (    5) =      15.103945 [THz] =     503.813367 [cm-1]
     freq (    6) =      15.103945 [THz] =     503.813367 [cm-1]

     Mode symmetry, O_h (m-3m)  point group:

     freq (  1 -  3) =         -4.1  [cm-1]   --> T_1u G_15  G_4- I
     freq (  4 -  6) =        503.8  [cm-1]   --> T_2g G_25' G_5+ R

[...]

     bravais-lattice index     =            2
     lattice parameter (alat)  =      10.3280  a.u.
     unit-cell volume          =     275.4157 (a.u.)^3
     number of atoms/cell      =            2
     number of atomic types    =            1
     number of electrons       =         8.00
     number of Kohn-Sham states=            4
     kinetic-energy cutoff     =      30.0000  Ry
     charge density cutoff     =     240.0000  Ry
     Exchange-correlation      = SLA  PW   PBE  PBE ( 1  4  3  4 0 0)

[...]

     atomic species   valence    mass     pseudopotential
        Si             4.00    28.08600     Si( 1.00)

     48 Sym. Ops., with inversion, found

[...]

     site n.     atom                  positions (alat units)
         1           Si  tau(   1) = (   0.0000000   0.0000000   0.0000000  )
         2           Si  tau(   2) = (   0.2500000   0.2500000   0.2500000  )

     number of k points=  2600

     Number of k-points >= 100: set verbosity='high' to print them.

     Largest allocated arrays     est. size (Mb)     dimensions
     Largest temporary arrays     est. size (Mb)     dimensions

     The potential is recalculated from file :
     ./silicon/_ph0/silicon.10.328.save/charge-density.dat

     Starting wfc are    8 atomic wfcs

     Band Structure Calculation
     Davidson diagonalization with overlap

     ethr =  1.25E-10,  avg # of iterations = 12.4

     End of band structure calculation

     Number of k-points >= 100: set verbosity='high' to print the bands.

     highest occupied level (ev):     5.9566

     Writing output data file silicon.10.328.save

[...]

      6 Sym.Ops. (no q -> -q+G )

[...]

     Mode symmetry, C_3v (3m)   point group:

[...]

     Representation     1      1 modes -A_1  L_1  To be done

[...]

     Representation     3      2 modes -E    L_3  To be done

[...]

     Representation #  1 mode #   1

[...]

     freq (  1 -  2) =         74.2  [cm-1]   --> E    L_3
     freq (  3 -  3) =        155.4  [cm-1]   --> A_1  L_1
     freq (  4 -  4) =        491.0  [cm-1]   --> A_1  L_1
     freq (  5 -  6) =        491.7  [cm-1]   --> E    L_3

[...]

     Representation     2      1 modes -A_1  L_1  To be done

[...]

     Representation     4      2 modes -E    L_3  To be done

[...]

     Mode symmetry, C_3v (3m)   point group:

     freq (  1 -  2) =        105.5  [cm-1]   --> E    L_3
     freq (  3 -  3) =        287.0  [cm-1]   --> A_1  L_1
     freq (  4 -  4) =        452.3  [cm-1]   --> A_1  L_1
     freq (  5 -  6) =        480.4  [cm-1]   --> E    L_3

[...]

     Representation     1      1 modes -  To be done

[...]

     Mode symmetry, C_4v (4mm)  point group:

[...]

     Representation     1      1 modes -A_1  G_1 D_1  To be done

     Representation     2      1 modes -B_2  G_4 D_2'  To be done

     Representation     3      2 modes -E    G_5 D_5  To be done

[...]

     freq (  1 -  2) =         99.0  [cm-1]   --> E    G_5 D_5
     freq (  3 -  3) =        162.2  [cm-1]   --> A_1  G_1 D_1
     freq (  4 -  5) =        478.1  [cm-1]   --> E    G_5 D_5
     freq (  6 -  6) =        495.0  [cm-1]   --> B_2  G_4 D_2'

[...]

     Mode symmetry, C_s (m)     point group:

[...]

     Representation     1      1 modes -A'  To be done

[...]

     Representation     5      1 modes -A''  To be done

[...]

     freq (  1 -  1) =        123.3  [cm-1]   --> A''
     freq (  2 -  2) =        150.0  [cm-1]   --> A'
     freq (  3 -  3) =        245.5  [cm-1]   --> A'
     freq (  4 -  4) =        451.7  [cm-1]   --> A'
     freq (  5 -  5) =        466.0  [cm-1]   --> A''
     freq (  6 -  6) =        477.5  [cm-1]   --> A'

[...]

     Mode symmetry, C_2v (mm2)  point group:

[...]

     freq (  1 -  1) =        109.9  [cm-1]   --> B_1  D_3  S_3
     freq (  2 -  2) =        144.0  [cm-1]   --> B_2  D_4  S_4
     freq (  3 -  3) =        211.0  [cm-1]   --> A_1  D_1  S_1
     freq (  4 -  4) =        455.6  [cm-1]   --> B_2  D_4  S_4
     freq (  5 -  5) =        478.7  [cm-1]   --> A_2  D_2  S_2
     freq (  6 -  6) =        482.3  [cm-1]   --> A_1  D_1  S_1

[...]

     Representation     2      1 modes -B_2  G_4 D_2'  To be done

[...]

     Representation     4      2 modes -E    G_5 D_5  To be done

[...]

     Mode symmetry, C_4v (4mm)  point group:

     freq (  1 -  2) =        140.5  [cm-1]   --> E    G_5 D_5
     freq (  3 -  3) =        301.0  [cm-1]   --> A_1  G_1 D_1
     freq (  4 -  5) =        453.0  [cm-1]   --> E    G_5 D_5
     freq (  6 -  6) =        464.0  [cm-1]   --> B_2  G_4 D_2'

[...]

     Representation     4      1 modes -A'  To be done

[...]

     Representation     6      1 modes -A''  To be done

[...]

     Mode symmetry, C_s (m)     point group:

     freq (  1 -  1) =        145.7  [cm-1]   --> A''
     freq (  2 -  2) =        185.2  [cm-1]   --> A'
     freq (  3 -  3) =        336.1  [cm-1]   --> A'
     freq (  4 -  4) =        407.9  [cm-1]   --> A'
     freq (  5 -  5) =        449.7  [cm-1]   --> A''
     freq (  6 -  6) =        460.5  [cm-1]   --> A'

[...]

     Representation     6      1 modes -B_2  D_4  S_4  To be done

[...]

     Mode symmetry, C_2v (mm2)  point group:

     freq (  1 -  1) =        147.6  [cm-1]   --> B_1  D_3  S_3
     freq (  2 -  2) =        216.9  [cm-1]   --> B_2  D_4  S_4
     freq (  3 -  3) =        331.8  [cm-1]   --> A_1  D_1  S_1
     freq (  4 -  4) =        369.4  [cm-1]   --> B_2  D_4  S_4
     freq (  5 -  5) =        452.0  [cm-1]   --> A_2  D_2  S_2
     freq (  6 -  6) =        470.6  [cm-1]   --> A_1  D_1  S_1

[...]

     17 Sym.Ops. (with q -> -q+G )

[...]

     Representation #  6 mode #   6

[...]

     Calculation of q =   -0.3333333  -1.0000000   0.0000000

     bravais-lattice index     =            2
     lattice parameter (alat)  =      10.3280  a.u.
     unit-cell volume          =     275.4157 (a.u.)^3
     number of atoms/cell      =            2
     number of atomic types    =            1
     number of electrons       =         8.00
     number of Kohn-Sham states=            4
     kinetic-energy cutoff     =      30.0000  Ry
     charge density cutoff     =     240.0000  Ry
     Exchange-correlation      = SLA  PW   PBE  PBE ( 1  4  3  4 0 0)

[...]

     atomic species   valence    mass     pseudopotential
        Si             4.00    28.08600     Si( 1.00)

     48 Sym. Ops., with inversion, found

[...]

     site n.     atom                  positions (alat units)
         1           Si  tau(   1) = (   0.0000000   0.0000000   0.0000000  )
         2           Si  tau(   2) = (   0.2500000   0.2500000   0.2500000  )

     number of k points=  3456

     Number of k-points >= 100: set verbosity='high' to print them.

     Largest allocated arrays     est. size (Mb)     dimensions
     Largest temporary arrays     est. size (Mb)     dimensions

     The potential is recalculated from file :
     ./silicon/_ph0/silicon.10.328.save/charge-density.dat

     Starting wfc are    8 atomic wfcs

     Band Structure Calculation
     Davidson diagonalization with overlap

     ethr =  1.25E-10,  avg # of iterations = 12.3

     End of band structure calculation

     Number of k-points >= 100: set verbosity='high' to print the bands.

     highest occupied level (ev):     5.9566

     Writing output data file silicon.10.328.save

     bravais-lattice index     =            2
     lattice parameter (alat)  =      10.3280  a.u.
     unit-cell volume          =     275.4157 (a.u.)^3
     number of atoms/cell      =            2
     number of atomic types    =            1
     kinetic-energy cut-off    =      30.0000  Ry
     charge density cut-off    =     240.0000  Ry
     convergence threshold     =      1.0E-16
     beta                      =       0.7000
     number of iterations used =            4
     Exchange-correlation      = SLA  PW   PBE  PBE ( 1  4  3  4 0 0)

     celldm(1)=   10.32800  celldm(2)=    0.00000  celldm(3)=    0.00000
     celldm(4)=    0.00000  celldm(5)=    0.00000  celldm(6)=    0.00000

     crystal axes: (cart. coord. in units of alat)
               a(1) = ( -0.5000  0.0000  0.5000 )
               a(2) = (  0.0000  0.5000  0.5000 )
               a(3) = ( -0.5000  0.5000  0.0000 )

     reciprocal axes: (cart. coord. in units 2 pi/alat)
               b(1) = ( -1.0000 -1.0000  1.0000 )
               b(2) = (  1.0000  1.0000  1.0000 )
               b(3) = ( -1.0000  1.0000 -1.0000 )

     Atoms inside the unit cell:

     Cartesian axes

     site n.  atom      mass           positions (alat units)
        1     Si  28.0860   tau(    1) = (    0.00000    0.00000    0.00000  )
        2     Si  28.0860   tau(    2) = (    0.25000    0.25000    0.25000  )

     Computing dynamical matrix for
                    q = (  -0.3333333  -1.0000000   0.0000000 )

      4 Sym.Ops. (no q -> -q+G )

     G cutoff =  648.4612  (   1079 G-vectors)     FFT grid: ( 40, 40, 40)
     G cutoff =  324.2306  (    387 G-vectors)  smooth grid: ( 25, 25, 25)
     number of k points=  3456

     PseudoPot. # 1 for Si read from file:
     ./si_pbe_v1.uspp.F.UPF.txt
     MD5 check sum: a056efeee980c13900f22a371efd63c1
     Pseudo is Ultrasoft + core correction, Zval =  4.0
     Generated by new atomic code, or converted to UPF format
     Using radial grid of  899 points,  6 beta functions with:
                l(1) =   0
                l(2) =   0
                l(3) =   1
                l(4) =   1
                l(5) =   2
                l(6) =   2
     Q(r) pseudized with  8 coefficients,  rinner =    0.900   0.900   0.900
                                                       0.900   0.900

     Atomic displacements:
     There are   3 irreducible representations

[...]

     Representation     3      2 modes -  To be done

     Alpha used in Ewald sum =   2.5000

[...]

     Representation #  3 modes #   5  6

     Self-consistent Calculation

[...]

      thresh= 5.096E-09 alpha_mix =  0.700 |ddv_scf|^2 =  2.024E-17

     End of self-consistent calculation

     Convergence has been achieved

     Number of q in the star =   12
     List of q in the star:
          1  -0.333333333  -1.000000000   0.000000000
          2   0.000000000  -1.000000000  -0.333333333
          3   0.000000000  -1.000000000   0.333333333
          4   0.333333333  -1.000000000   0.000000000
          5  -1.000000000   0.000000000  -0.333333333
          6   1.000000000   0.000000000   0.333333333
          7   0.000000000   0.333333333   1.000000000
          8   0.000000000  -0.333333333  -1.000000000
          9  -1.000000000  -0.333333333   0.000000000
         10   1.000000000   0.333333333   0.000000000
         11  -0.333333333   0.000000000   1.000000000
         12   0.333333333   0.000000000   1.000000000

     Diagonalizing the dynamical matrix

     q = (   -0.333333333  -1.000000000   0.000000000 )

     freq (    1) =       5.610581 [THz] =     187.148822 [cm-1]
     freq (    2) =       5.610581 [THz] =     187.148822 [cm-1]
     freq (    3) =      10.752248 [THz] =     358.656371 [cm-1]
     freq (    4) =      10.752248 [THz] =     358.656371 [cm-1]
     freq (    5) =      13.579344 [THz] =     452.958152 [cm-1]
     freq (    6) =      13.579344 [THz] =     452.958152 [cm-1]

     General routines

     Parallel routines

     INITIALIZATION:

     DYNAMICAL MATRIX:

      General routines

   This run was terminated on:  14:21: 1   7Apr2018

   JOB DONE.
Application 30445984 resources: utime ~502147s, stime ~14806s, Rss ~32436, inblocks ~1099206929, outblocks ~520169420