     Program PHONON v.5.4.0 starts on 29Mar2018 at 16: 8:44

     Reading data from directory:
     ./na_hcp_7.24/na_hcp_7.24.save

   Info: using nr1, nr2, nr3 values from input

   Info: using nr1, nr2, nr3 values from input

     IMPORTANT: XC functional enforced from input :
     Exchange-correlation      = SLA  PW   PBE  PBE ( 1  4  3  4 0 0)
     Any further DFT definition will be discarded
     Please, verify this is what you really want

     Dynamical matrices for ( 4, 4, 4)  uniform grid of q-points
     (  12q-points):
       N         xq(1)         xq(2)         xq(3)
       1   0.000000000   0.000000000   0.000000000
       2   0.000000000   0.000000000   0.153330962
       3   0.000000000   0.000000000  -0.306661924
       4   0.000000000   0.288675135   0.000000000
       5   0.000000000   0.288675135   0.153330962
       6   0.000000000   0.288675135  -0.306661924
       7   0.000000000  -0.577350269   0.000000000
       8   0.000000000  -0.577350269   0.153330962
       9   0.000000000  -0.577350269  -0.306661924
      10   0.250000000   0.433012702   0.000000000
      11   0.250000000   0.433012702   0.153330962
      12   0.250000000   0.433012702  -0.306661924

     Calculation of q =    0.0000000   0.0000000   0.0000000

     bravais-lattice index     =            4
     lattice parameter (alat)  =       7.2400  a.u.
     unit-cell volume          =     535.8663 (a.u.)^3
     number of atoms/cell      =            2
     number of atomic types    =            1
     kinetic-energy cut-off    =      40.0000  Ry
     charge density cut-off    =     320.0000  Ry
     convergence threshold     =      1.0E-15
     beta                      =       0.7000
     number of iterations used =            4
     Exchange-correlation      = SLA  PW   PBE  PBE ( 1  4  3  4 0 0)

     celldm(1)=    7.24000  celldm(2)=    0.00000  celldm(3)=    1.63046
     celldm(4)=    0.00000  celldm(5)=    0.00000  celldm(6)=    0.00000

     crystal axes: (cart. coord. in units of alat)
               a(1) = (  1.0000  0.0000  0.0000 )
               a(2) = ( -0.5000  0.8660  0.0000 )
               a(3) = (  0.0000  0.0000  1.6305 )

     reciprocal axes: (cart. coord. in units 2 pi/alat)
               b(1) = (  1.0000  0.5774  0.0000 )
               b(2) = (  0.0000  1.1547  0.0000 )
               b(3) = (  0.0000  0.0000  0.6133 )

     Atoms inside the unit cell:

     Cartesian axes

     site n.  atom      mass           positions (alat units)
        1     Na  22.9900   tau(    1) = (    0.00000    0.00000    0.00000  )
        2     Na  22.9900   tau(    2) = (    0.50000    0.28868    0.81523  )

     Computing dynamical matrix for
                    q = (   0.0000000   0.0000000   0.0000000 )

     25 Sym.Ops. (with q -> -q+G )

     G cutoff =  424.8811  (   6477 G-vectors)     FFT grid: ( 45, 45, 72)
     G cutoff =  212.4405  (   2303 G-vectors)  smooth grid: ( 30, 30, 48)

     number of k points=   366  Marzari-Vanderbilt smearing, width (Ry)=  0.0200

     PseudoPot. # 1 for Na read from file:
     ./Na_pbe_v1.uspp.F.UPF
     MD5 check sum: 76a99c7e9422403d3e93cbc85ab7bccb
     Pseudo is Ultrasoft, Zval =  9.0
     Generated by new atomic code, or converted to UPF format
     Using radial grid of  819 points,  5 beta functions with:
                l(1) =   0
                l(2) =   0
                l(3) =   1
                l(4) =   1
                l(5) =   2
     Q(r) pseudized with  8 coefficients,  rinner =    1.250   1.250   1.250
                                                       1.250   1.250

     Mode symmetry, D_6h(6/mmm) point group:

     Atomic displacements:
     There are   4 irreducible representations

     Representation     1      1 modes -B_1g  To be done

     Representation     2      2 modes -E_2g  To be done

     Representation     3      1 modes -A_2u  To be done

     Representation     4      2 modes -E_1u  To be done

     Alpha used in Ewald sum =   2.8000

     Representation #  1 mode #   1

     Self-consistent Calculation

     Pert. #  1: Fermi energy shift (Ry) =     0.0000E+00     3.9183E-39

      thresh= 1.000E-02 alpha_mix =  0.700 |ddv_scf|^2 =  2.631E-05

[...]

     End of self-consistent calculation

     Convergence has been achieved

     Representation #  2 modes #   2  3

[...]

     Pert. #  1: Fermi energy shift (Ry) =     1.2797E-25    -1.1584E-43
     Pert. #  2: Fermi energy shift (Ry) =     1.0340E-25     4.4842E-44

[...]

     Number of q in the star =    1
     List of q in the star:
          1   0.000000000   0.000000000   0.000000000

     Diagonalizing the dynamical matrix

     q = (    0.000000000   0.000000000   0.000000000 )

     freq (    1) =      -0.466807 [THz] =     -15.571022 [cm-1]
     freq (    2) =      -0.418956 [THz] =     -13.974870 [cm-1]
     freq (    3) =      -0.418956 [THz] =     -13.974870 [cm-1]
     freq (    4) =       1.497415 [THz] =      49.948388 [cm-1]
     freq (    5) =       1.497415 [THz] =      49.948388 [cm-1]
     freq (    6) =       3.469113 [THz] =     115.717167 [cm-1]

     Mode symmetry, D_6h(6/mmm) point group:

     freq (  1 -  1) =        -15.6  [cm-1]   --> A_2u            I
     freq (  2 -  3) =        -14.0  [cm-1]   --> E_1u            I
     freq (  4 -  5) =         49.9  [cm-1]   --> E_2g            R
     freq (  6 -  6) =        115.7  [cm-1]   --> B_1g

[...]

     bravais-lattice index     =            4
     lattice parameter (alat)  =       7.2400  a.u.
     unit-cell volume          =     535.8663 (a.u.)^3
     number of atoms/cell      =            2
     number of atomic types    =            1
     number of electrons       =        18.00
     number of Kohn-Sham states=           13
     kinetic-energy cutoff     =      40.0000  Ry
     charge density cutoff     =     320.0000  Ry
     Exchange-correlation      = SLA  PW   PBE  PBE ( 1  4  3  4 0 0)

[...]

     atomic species   valence    mass     pseudopotential
        Na             9.00    22.99000     Na( 1.00)

     24 Sym. Ops., with inversion, found

[...]

     site n.     atom                  positions (alat units)
         1           Na  tau(   1) = (   0.0000000   0.0000000   0.0000000  )
         2           Na  tau(   2) = (   0.4999999   0.2886751   0.8152300  )

[...]

     Number of k-points >= 100: set verbosity='high' to print them.

     Largest allocated arrays     est. size (Mb)     dimensions
     Largest temporary arrays     est. size (Mb)     dimensions

     The potential is recalculated from file :
     ./na_hcp_7.24/_ph0/na_hcp_7.24.save/charge-density.dat

     Starting wfc are   10 atomic +    3 random wfc

     Band Structure Calculation
     Davidson diagonalization with overlap

     ethr =  5.56E-11,  avg # of iterations = 24.3

     End of band structure calculation

     Number of k-points >= 100: set verbosity='high' to print the bands.

     the Fermi energy is     1.3290 ev

     Writing output data file na_hcp_7.24.save

[...]

     12 Sym.Ops. (no q -> -q+G )

[...]

     Mode symmetry, C_6v (6mm)  point group:

[...]

     Representation     1      1 modes -A_1  To be done

[...]

     Representation     4      2 modes -E_2  To be done

[...]

     Mode symmetry, C_6v (6mm)  point group:

     freq (  1 -  2) =         13.8  [cm-1]   --> E_1
     freq (  3 -  4) =         45.8  [cm-1]   --> E_2
     freq (  5 -  5) =         46.7  [cm-1]   --> A_1
     freq (  6 -  6) =        108.1  [cm-1]   --> B_2

[...]

     Representation     1      4 modes -  To be done

[...]

     Mode symmetry, C_2v (mm2)  point group:

[...]

     Representation     1      1 modes -A_1  D_1  S_1  To be done

[...]

     freq (  1 -  1) =         36.3  [cm-1]   --> B_1  D_3  S_3
     freq (  2 -  2) =         44.1  [cm-1]   --> B_2  D_4  S_4
     freq (  3 -  3) =         73.2  [cm-1]   --> B_1  D_3  S_3
     freq (  4 -  4) =         75.4  [cm-1]   --> A_1  D_1  S_1
     freq (  5 -  5) =         91.9  [cm-1]   --> A_1  D_1  S_1
     freq (  6 -  6) =        108.3  [cm-1]   --> B_2  D_4  S_4

[...]

     Mode symmetry, C_s (m)     point group:

[...]

     Representation     1      1 modes -A'  To be done

[...]

     Representation     5      1 modes -A''  To be done

[...]

     freq (  1 -  1) =         43.5  [cm-1]   --> A''
     freq (  2 -  2) =         50.2  [cm-1]   --> A'
     freq (  3 -  3) =         69.4  [cm-1]   --> A''
     freq (  4 -  4) =         82.1  [cm-1]   --> A'
     freq (  5 -  5) =         86.7  [cm-1]   --> A'
     freq (  6 -  6) =        106.1  [cm-1]   --> A'

[...]

      9 Sym.Ops. (with q -> -q+G )

[...]

     Representation     6      1 modes -B_2  D_4  S_4  To be done

[...]

     Mode symmetry, C_2v (mm2)  point group:

     freq (  1 -  1) =         66.8  [cm-1]   --> B_2  D_4  S_4
     freq (  2 -  2) =         76.5  [cm-1]   --> B_1  D_3  S_3
     freq (  3 -  3) =         85.6  [cm-1]   --> A_1  D_1  S_1
     freq (  4 -  4) =         97.7  [cm-1]   --> A_2  D_2  S_2
     freq (  5 -  5) =        103.7  [cm-1]   --> A_1  D_1  S_1
     freq (  6 -  6) =        105.1  [cm-1]   --> B_1  D_3  S_3

[...]

     Representation     3      1 modes -A'  To be done

[...]

     Representation     6      1 modes -A''  To be done

[...]

     Representation #  6 mode #   6

[...]

     Mode symmetry, C_s (m)     point group:

     freq (  1 -  1) =         60.3  [cm-1]   --> A'
     freq (  2 -  2) =         73.6  [cm-1]   --> A''
     freq (  3 -  3) =         90.7  [cm-1]   --> A'
     freq (  4 -  4) =         91.1  [cm-1]   --> A''
     freq (  5 -  5) =        105.3  [cm-1]   --> A'
     freq (  6 -  6) =        110.1  [cm-1]   --> A''

     Calculation of q =    0.2500000   0.4330127  -0.3066619

     bravais-lattice index     =            4
     lattice parameter (alat)  =       7.2400  a.u.
     unit-cell volume          =     535.8663 (a.u.)^3
     number of atoms/cell      =            2
     number of atomic types    =            1
     number of electrons       =        18.00
     number of Kohn-Sham states=           13
     kinetic-energy cutoff     =      40.0000  Ry
     charge density cutoff     =     320.0000  Ry
     Exchange-correlation      = SLA  PW   PBE  PBE ( 1  4  3  4 0 0)

[...]

     atomic species   valence    mass     pseudopotential
        Na             9.00    22.99000     Na( 1.00)

     24 Sym. Ops., with inversion, found

[...]

     site n.     atom                  positions (alat units)
         1           Na  tau(   1) = (   0.0000000   0.0000000   0.0000000  )
         2           Na  tau(   2) = (   0.4999999   0.2886751   0.8152300  )

[...]

     Number of k-points >= 100: set verbosity='high' to print them.

     Largest allocated arrays     est. size (Mb)     dimensions
     Largest temporary arrays     est. size (Mb)     dimensions

     The potential is recalculated from file :
     ./na_hcp_7.24/_ph0/na_hcp_7.24.save/charge-density.dat

     Starting wfc are   10 atomic +    3 random wfc

     Band Structure Calculation
     Davidson diagonalization with overlap

     ethr =  5.56E-11,  avg # of iterations = 23.2

     End of band structure calculation

     Number of k-points >= 100: set verbosity='high' to print the bands.

     the Fermi energy is     1.3290 ev

     Writing output data file na_hcp_7.24.save

     bravais-lattice index     =            4
     lattice parameter (alat)  =       7.2400  a.u.
     unit-cell volume          =     535.8663 (a.u.)^3
     number of atoms/cell      =            2
     number of atomic types    =            1
     kinetic-energy cut-off    =      40.0000  Ry
     charge density cut-off    =     320.0000  Ry
     convergence threshold     =      1.0E-15
     beta                      =       0.7000
     number of iterations used =            4
     Exchange-correlation      = SLA  PW   PBE  PBE ( 1  4  3  4 0 0)

     celldm(1)=    7.24000  celldm(2)=    0.00000  celldm(3)=    1.63046
     celldm(4)=    0.00000  celldm(5)=    0.00000  celldm(6)=    0.00000

     crystal axes: (cart. coord. in units of alat)
               a(1) = (  1.0000  0.0000  0.0000 )
               a(2) = ( -0.5000  0.8660  0.0000 )
               a(3) = (  0.0000  0.0000  1.6305 )

     reciprocal axes: (cart. coord. in units 2 pi/alat)
               b(1) = (  1.0000  0.5774  0.0000 )
               b(2) = (  0.0000  1.1547  0.0000 )
               b(3) = (  0.0000  0.0000  0.6133 )

     Atoms inside the unit cell:

     Cartesian axes

     site n.  atom      mass           positions (alat units)
        1     Na  22.9900   tau(    1) = (    0.00000    0.00000    0.00000  )
        2     Na  22.9900   tau(    2) = (    0.50000    0.28868    0.81523  )

     Computing dynamical matrix for
                    q = (   0.2500000   0.4330127  -0.3066619 )

      4 Sym.Ops. (no q -> -q+G )

     G cutoff =  424.8811  (   6477 G-vectors)     FFT grid: ( 45, 45, 72)
     G cutoff =  212.4405  (   2297 G-vectors)  smooth grid: ( 30, 30, 48)

     number of k points=  3600  Marzari-Vanderbilt smearing, width (Ry)=  0.0200

     PseudoPot. # 1 for Na read from file:
     ./Na_pbe_v1.uspp.F.UPF
     MD5 check sum: 76a99c7e9422403d3e93cbc85ab7bccb
     Pseudo is Ultrasoft, Zval =  9.0
     Generated by new atomic code, or converted to UPF format
     Using radial grid of  819 points,  5 beta functions with:
                l(1) =   0
                l(2) =   0
                l(3) =   1
                l(4) =   1
                l(5) =   2
     Q(r) pseudized with  8 coefficients,  rinner =    1.250   1.250   1.250
                                                       1.250   1.250

     Atomic displacements:
     There are   3 irreducible representations

[...]

     Representation     3      2 modes -  To be done

     Alpha used in Ewald sum =   2.8000

[...]

     Representation #  3 modes #   5  6

     Self-consistent Calculation

[...]

      thresh= 1.356E-08 alpha_mix =  0.700 |ddv_scf|^2 =  2.140E-16

     End of self-consistent calculation

     Convergence has been achieved

     Number of q in the star =    6
     List of q in the star:
          1   0.250000000   0.433012702  -0.306661924
          2  -0.250000000   0.433012702  -0.306661924
          3   0.250000000  -0.433012702   0.306661924
          4  -0.250000000  -0.433012702   0.306661924
          5   0.500000000   0.000000000  -0.306661924
          6  -0.500000000   0.000000000  -0.306661924

     Diagonalizing the dynamical matrix

     q = (    0.250000000   0.433012702  -0.306661924 )

     freq (    1) =       1.904784 [THz] =      63.536744 [cm-1]
     freq (    2) =       1.904784 [THz] =      63.536744 [cm-1]
     freq (    3) =       2.757713 [THz] =      91.987403 [cm-1]
     freq (    4) =       2.757713 [THz] =      91.987403 [cm-1]
     freq (    5) =       3.347527 [THz] =     111.661482 [cm-1]
     freq (    6) =       3.347527 [THz] =     111.661482 [cm-1]

     General routines

     Parallel routines

     INITIALIZATION:

     DYNAMICAL MATRIX:

      General routines

   This run was terminated on:  17:25: 0  29Mar2018

   JOB DONE.
Application 30388275 resources: utime ~819826s, stime ~8611s, Rss ~52320, inblocks ~4255127048, outblocks ~1459755926