     Program PWSCF v.5.4.0 starts on 26Mar2018 at 20:54: 8

     Current dimensions of program PWSCF are:
     Max number of different atomic species (ntypx) = 10
     Max number of k-points (npk) =  40000
     Max angular momentum in pseudopotentials (lmaxx) =  3

     bravais-lattice index     =            4
     lattice parameter (alat)  =       6.9764  a.u.
     unit-cell volume          =     479.8373 (a.u.)^3
     number of atoms/cell      =            2
     number of atomic types    =            1
     number of electrons       =        18.00
     number of Kohn-Sham states=           13
     kinetic-energy cutoff     =      40.0000  Ry
     charge density cutoff     =     320.0000  Ry
     convergence threshold     =      1.0E-10
     mixing beta               =       0.7000
     number of iterations used =            8  plain     mixing
     Exchange-correlation      = SLA  PW   PBE  PBE ( 1  4  3  4 0 0)

     celldm(1)=   6.976383  celldm(2)=   0.000000  celldm(3)=   1.631821
     celldm(4)=   0.000000  celldm(5)=   0.000000  celldm(6)=   0.000000

     crystal axes: (cart. coord. in units of alat)
               a(1) = (   1.000000   0.000000   0.000000 )
               a(2) = (  -0.500000   0.866025   0.000000 )
               a(3) = (   0.000000   0.000000   1.631821 )

     reciprocal axes: (cart. coord. in units 2 pi/alat)
               b(1) = (  1.000000  0.577350  0.000000 )
               b(2) = (  0.000000  1.154701  0.000000 )
               b(3) = (  0.000000  0.000000  0.612812 )

     PseudoPot. # 1 for Na read from file:
     ./Na_pbe_v1.uspp.F.UPF
     MD5 check sum: 76a99c7e9422403d3e93cbc85ab7bccb
     Pseudo is Ultrasoft, Zval =  9.0
     Generated by new atomic code, or converted to UPF format
     Using radial grid of  819 points,  5 beta functions with:
                l(1) =   0
                l(2) =   0
                l(3) =   1
                l(4) =   1
                l(5) =   2
     Q(r) pseudized with  8 coefficients,  rinner =    1.250   1.250   1.250
                                                       1.250   1.250

     atomic species   valence    mass     pseudopotential
        Na             9.00    22.99000     Na( 1.00)

     12 Sym. Ops. (no inversion) found
          (note: 12 additional sym.ops. were found but ignored
           their fractional translations are incommensurate with FFT grid)

   Cartesian axes

     site n.     atom                  positions (alat units)
         1           Na  tau(   1) = (   0.0000000   0.0000000   0.0000000  )
         2           Na  tau(   2) = (   0.4999999   0.2886751   0.8159104  )

     number of k points=   366  Marzari-Vanderbilt smearing, width (Ry)=  0.0200

     Number of k-points >= 100: set verbosity='high' to print them.

     Largest allocated arrays     est. size (Mb)     dimensions
     Largest temporary arrays     est. size (Mb)     dimensions

     Initial potential from superposition of free atoms

     starting charge   17.98742, renormalised to   18.00000
     Starting wfc are   10 randomized atomic wfcs +    3 random wfc

     Self-consistent Calculation

     iteration #  1     ecut=    40.00 Ry     beta=0.70
     Davidson diagonalization with overlap
     ethr =  1.00E-02,  avg # of iterations =  5.8

     Threshold (ethr) on eigenvalues was too large:
     Diagonalizing with lowered threshold

     Davidson diagonalization with overlap
     c_bands:  1 eigenvalues not converged
     ethr =  9.48E-06,  avg # of iterations =  6.8

     total energy              =    -190.21272442 Ry
     Harris-Foulkes estimate   =    -190.21316289 Ry
     estimated scf accuracy    <       0.00175991 Ry

[...]

     total energy              =    -190.21293927 Ry
     Harris-Foulkes estimate   =    -190.21293926 Ry
     estimated scf accuracy    <          2.6E-09 Ry

     iteration #  6     ecut=    40.00 Ry     beta=0.70
     Davidson diagonalization with overlap
     ethr =  1.42E-11,  avg # of iterations =  1.8

     End of self-consistent calculation

     Number of k-points >= 100: set verbosity='high' to print the bands.

     the Fermi energy is     1.7818 ev

!    total energy              =    -190.21293927 Ry
     Harris-Foulkes estimate   =    -190.21293927 Ry
     estimated scf accuracy    <          7.1E-11 Ry

     The total energy is the sum of the following terms:

     one-electron contribution =    -174.46794739 Ry
     hartree contribution      =      88.10093119 Ry
     xc contribution           =     -28.54794727 Ry
     ewald contribution        =     -75.29784821 Ry
     smearing contrib. (-TS)   =      -0.00012758 Ry

     convergence has been achieved in   6 iterations

     entering subroutine stress ...

          total   stress  (Ry/bohr**3)                   (kbar)     P=    0.60
   0.00000398   0.00000000  -0.00000000          0.59      0.00     -0.00
   0.00000000   0.00000398   0.00000000          0.00      0.59      0.00
  -0.00000000   0.00000000   0.00000427         -0.00      0.00      0.63

     Writing output data file na_hcp_6.976382950545051.save

     General routines

     Parallel routines

   This run was terminated on:  20:55:25  26Mar2018

   JOB DONE.
Application 30368652 resources: utime ~1780s, stime ~17s, Rss ~39624, inblocks ~180123, outblocks ~511489