     Program PHONON v.5.4.0 starts on 26Mar2018 at 20:55:32

     Reading data from directory:
     ./na_hcp_6.976382950545051/na_hcp_6.976382950545051.save

   Info: using nr1, nr2, nr3 values from input

   Info: using nr1, nr2, nr3 values from input

     IMPORTANT: XC functional enforced from input :
     Exchange-correlation      = SLA  PW   PBE  PBE ( 1  4  3  4 0 0)
     Any further DFT definition will be discarded
     Please, verify this is what you really want

     Dynamical matrices for ( 4, 4, 4)  uniform grid of q-points
     (  12q-points):
       N         xq(1)         xq(2)         xq(3)
       1   0.000000000   0.000000000   0.000000000
       2   0.000000000   0.000000000   0.153203096
       3   0.000000000   0.000000000  -0.306406192
       4   0.000000000   0.288675135   0.000000000
       5   0.000000000   0.288675135   0.153203096
       6   0.000000000   0.288675135  -0.306406192
       7   0.000000000  -0.577350269   0.000000000
       8   0.000000000  -0.577350269   0.153203096
       9   0.000000000  -0.577350269  -0.306406192
      10   0.250000000   0.433012702   0.000000000
      11   0.250000000   0.433012702   0.153203096
      12   0.250000000   0.433012702  -0.306406192

     Calculation of q =    0.0000000   0.0000000   0.0000000

     bravais-lattice index     =            4
     lattice parameter (alat)  =       6.9764  a.u.
     unit-cell volume          =     479.8373 (a.u.)^3
     number of atoms/cell      =            2
     number of atomic types    =            1
     kinetic-energy cut-off    =      40.0000  Ry
     charge density cut-off    =     320.0000  Ry
     convergence threshold     =      1.0E-15
     beta                      =       0.7000
     number of iterations used =            4
     Exchange-correlation      = SLA  PW   PBE  PBE ( 1  4  3  4 0 0)

     celldm(1)=    6.97638  celldm(2)=    0.00000  celldm(3)=    1.63182
     celldm(4)=    0.00000  celldm(5)=    0.00000  celldm(6)=    0.00000

     crystal axes: (cart. coord. in units of alat)
               a(1) = (  1.0000  0.0000  0.0000 )
               a(2) = ( -0.5000  0.8660  0.0000 )
               a(3) = (  0.0000  0.0000  1.6318 )

     reciprocal axes: (cart. coord. in units 2 pi/alat)
               b(1) = (  1.0000  0.5774  0.0000 )
               b(2) = (  0.0000  1.1547  0.0000 )
               b(3) = (  0.0000  0.0000  0.6128 )

     Atoms inside the unit cell:

     Cartesian axes

     site n.  atom      mass           positions (alat units)
        1     Na  22.9900   tau(    1) = (    0.00000    0.00000    0.00000  )
        2     Na  22.9900   tau(    2) = (    0.50000    0.28868    0.81591  )

     Computing dynamical matrix for
                    q = (   0.0000000   0.0000000   0.0000000 )

     13 Sym.Ops. (with q -> -q+G )

     G cutoff =  394.5035  (   5800 G-vectors)     FFT grid: ( 40, 40, 72)
     G cutoff =  197.2518  (   2039 G-vectors)  smooth grid: ( 30, 30, 45)

     number of k points=   366  Marzari-Vanderbilt smearing, width (Ry)=  0.0200

     PseudoPot. # 1 for Na read from file:
     ./Na_pbe_v1.uspp.F.UPF
     MD5 check sum: 76a99c7e9422403d3e93cbc85ab7bccb
     Pseudo is Ultrasoft, Zval =  9.0
     Generated by new atomic code, or converted to UPF format
     Using radial grid of  819 points,  5 beta functions with:
                l(1) =   0
                l(2) =   0
                l(3) =   1
                l(4) =   1
                l(5) =   2
     Q(r) pseudized with  8 coefficients,  rinner =    1.250   1.250   1.250
                                                       1.250   1.250

     Mode symmetry, D_3h (-62m) point group:

     Atomic displacements:
     There are   4 irreducible representations

     Representation     1      2 modes -E'  To be done

[...]

     Representation     3      1 modes -A''2  To be done

[...]

     Alpha used in Ewald sum =   2.8000

     Representation #  1 modes #   1  2

     Self-consistent Calculation

     Pert. #  1: Fermi energy shift (Ry) =     0.0000E+00     0.0000E+00
     Pert. #  2: Fermi energy shift (Ry) =    -1.0842E-19     0.0000E+00

      thresh= 1.000E-02 alpha_mix =  0.700 |ddv_scf|^2 =  9.450E-07

[...]

     End of self-consistent calculation

     Convergence has been achieved

[...]

     Representation #  3 mode #   5

[...]

     Pert. #  1: Fermi energy shift (Ry) =    -2.8234E-22     0.0000E+00

[...]

     Number of q in the star =    1
     List of q in the star:
          1   0.000000000   0.000000000   0.000000000

     Diagonalizing the dynamical matrix

     q = (    0.000000000   0.000000000   0.000000000 )

     freq (    1) =      -0.546746 [THz] =     -18.237492 [cm-1]
     freq (    2) =      -0.546746 [THz] =     -18.237492 [cm-1]
     freq (    3) =       0.574577 [THz] =      19.165815 [cm-1]
     freq (    4) =       1.689917 [THz] =      56.369557 [cm-1]
     freq (    5) =       1.689917 [THz] =      56.369557 [cm-1]
     freq (    6) =       4.080771 [THz] =     136.119862 [cm-1]

[...]

     freq (  1 -  2) =        -18.2  [cm-1]   --> E'              I+R
     freq (  3 -  3) =         19.2  [cm-1]   --> A''2            I
     freq (  4 -  5) =         56.4  [cm-1]   --> E'              I+R
     freq (  6 -  6) =        136.1  [cm-1]   --> A''2            I

[...]

     bravais-lattice index     =            4
     lattice parameter (alat)  =       6.9764  a.u.
     unit-cell volume          =     479.8373 (a.u.)^3
     number of atoms/cell      =            2
     number of atomic types    =            1
     number of electrons       =        18.00
     number of Kohn-Sham states=           13
     kinetic-energy cutoff     =      40.0000  Ry
     charge density cutoff     =     320.0000  Ry
     Exchange-correlation      = SLA  PW   PBE  PBE ( 1  4  3  4 0 0)

[...]

     atomic species   valence    mass     pseudopotential
        Na             9.00    22.99000     Na( 1.00)

     12 Sym. Ops. (no inversion) found

[...]

     site n.     atom                  positions (alat units)
         1           Na  tau(   1) = (   0.0000000   0.0000000   0.0000000  )
         2           Na  tau(   2) = (   0.5000000   0.2886751   0.8159104  )

[...]

     Number of k-points >= 100: set verbosity='high' to print them.

     Largest allocated arrays     est. size (Mb)     dimensions
     Largest temporary arrays     est. size (Mb)     dimensions

     The potential is recalculated from file :
     ./na_hcp_6.976382950545051/_ph0/na_hcp_6.976382950545051.save/charge-density.dat

     Starting wfc are   10 atomic +    3 random wfc

     Band Structure Calculation
     Davidson diagonalization with overlap

     ethr =  5.56E-11,  avg # of iterations = 23.2

     End of band structure calculation

     Number of k-points >= 100: set verbosity='high' to print the bands.

     the Fermi energy is     1.7818 ev

     Writing output data file na_hcp_6.976382950545051.save

[...]

      6 Sym.Ops. (no q -> -q+G )

[...]

     Mode symmetry, C_3v (3m)   point group:

[...]

     Representation     1      1 modes -A_1  L_1  To be done

     Representation     2      1 modes -A_1  L_1  To be done

     Representation     3      2 modes -E    L_3  To be done

     Representation     4      2 modes -E    L_3  To be done

[...]

     Mode symmetry, C_3v (3m)   point group:

     freq (  1 -  2) =         14.0  [cm-1]   --> E    L_3
     freq (  3 -  4) =         52.2  [cm-1]   --> E    L_3
     freq (  5 -  5) =         55.3  [cm-1]   --> A_1  L_1
     freq (  6 -  6) =        127.9  [cm-1]   --> A_1  L_1

[...]

     Representation     1      1 modes -A'_1  To be done

[...]

     Representation     3      1 modes -A''2  To be done

     Representation     4      2 modes -E''  To be done

[...]

     Representation #  4 modes #   5  6

[...]

     Mode symmetry, D_3h (-62m) point group:

     freq (  1 -  2) =         37.6  [cm-1]   --> E'
     freq (  3 -  4) =         38.8  [cm-1]   --> E''
     freq (  5 -  5) =         99.9  [cm-1]   --> A'_1
     freq (  6 -  6) =         99.9  [cm-1]   --> A''2

[...]

     Mode symmetry, C_2v (mm2)  point group:

[...]

     Representation     1      1 modes -A_1  D_1  S_1  To be done

[...]

     Number of q in the star =    3
     List of q in the star:
          1   0.000000000   0.288675135   0.000000000
          2   0.250000000  -0.144337567   0.000000000
          3  -0.250000000  -0.144337567   0.000000000
     In addition there is the -q list:
          1   0.000000000  -0.288675135   0.000000000
          2  -0.250000000   0.144337567   0.000000000
          3   0.250000000   0.144337567   0.000000000

[...]

     freq (  1 -  1) =         39.0  [cm-1]   --> B_1  D_3  S_3
     freq (  2 -  2) =         48.3  [cm-1]   --> B_2  D_4  S_4
     freq (  3 -  3) =         81.6  [cm-1]   --> B_1  D_3  S_3
     freq (  4 -  4) =         87.6  [cm-1]   --> A_1  D_1  S_1
     freq (  5 -  5) =        106.8  [cm-1]   --> A_1  D_1  S_1
     freq (  6 -  6) =        127.9  [cm-1]   --> B_2  D_4  S_4

[...]

     Mode symmetry, C_s (m)     point group:

[...]

     freq (  1 -  1) =         47.5  [cm-1]   --> A''
     freq (  2 -  2) =         55.9  [cm-1]   --> A'
     freq (  3 -  3) =         77.2  [cm-1]   --> A''
     freq (  4 -  4) =         96.2  [cm-1]   --> A'
     freq (  5 -  5) =        100.0  [cm-1]   --> A'
     freq (  6 -  6) =        124.6  [cm-1]   --> A'

[...]

     Number of q in the star =    3
     List of q in the star:
          1   0.000000000   0.288675135  -0.306406192
          2   0.250000000  -0.144337567  -0.306406192
          3  -0.250000000  -0.144337567  -0.306406192
     In addition there is the -q list:
          1   0.000000000  -0.288675135   0.306406192
          2  -0.250000000   0.144337567   0.306406192
          3   0.250000000   0.144337567   0.306406192

[...]

      5 Sym.Ops. (with q -> -q+G )

[...]

     Representation     6      1 modes -B_2  D_4  S_4  To be done

[...]

     Mode symmetry, C_2v (mm2)  point group:

     freq (  1 -  1) =         80.3  [cm-1]   --> B_1  D_3  S_3
     freq (  2 -  2) =         80.9  [cm-1]   --> A_2  D_2  S_2
     freq (  3 -  3) =         82.8  [cm-1]   --> A_1  D_1  S_1
     freq (  4 -  4) =         82.9  [cm-1]   --> B_2  D_4  S_4
     freq (  5 -  5) =        138.4  [cm-1]   --> A_1  D_1  S_1
     freq (  6 -  6) =        138.6  [cm-1]   --> B_2  D_4  S_4

[...]

     freq (  1 -  1) =         78.3  [cm-1]   --> A''
     freq (  2 -  2) =         87.7  [cm-1]   --> A'
     freq (  3 -  3) =         98.7  [cm-1]   --> A'
     freq (  4 -  4) =        112.4  [cm-1]   --> A''
     freq (  5 -  5) =        121.6  [cm-1]   --> A'
     freq (  6 -  6) =        122.8  [cm-1]   --> A'

[...]

     No symmetry!

[...]

     Mode symmetry, C_1 (1)     point group:

[...]

     Representation     1      1 modes -A  To be done

[...]

     Representation     6      1 modes -A  To be done

[...]

     Mode symmetry, C_1 (1)     point group:

     freq (  1 -  1) =         66.9  [cm-1]   --> A
     freq (  2 -  2) =         84.4  [cm-1]   --> A
     freq (  3 -  3) =        103.8  [cm-1]   --> A
     freq (  4 -  4) =        105.5  [cm-1]   --> A
     freq (  5 -  5) =        124.1  [cm-1]   --> A
     freq (  6 -  6) =        129.4  [cm-1]   --> A

     Calculation of q =    0.2500000   0.4330127  -0.3064062

     bravais-lattice index     =            4
     lattice parameter (alat)  =       6.9764  a.u.
     unit-cell volume          =     479.8373 (a.u.)^3
     number of atoms/cell      =            2
     number of atomic types    =            1
     number of electrons       =        18.00
     number of Kohn-Sham states=           13
     kinetic-energy cutoff     =      40.0000  Ry
     charge density cutoff     =     320.0000  Ry
     Exchange-correlation      = SLA  PW   PBE  PBE ( 1  4  3  4 0 0)

[...]

     atomic species   valence    mass     pseudopotential
        Na             9.00    22.99000     Na( 1.00)

     12 Sym. Ops. (no inversion) found

[...]

     site n.     atom                  positions (alat units)
         1           Na  tau(   1) = (   0.0000000   0.0000000   0.0000000  )
         2           Na  tau(   2) = (   0.5000000   0.2886751   0.8159104  )

[...]

     Number of k-points >= 100: set verbosity='high' to print them.

     Largest allocated arrays     est. size (Mb)     dimensions
     Largest temporary arrays     est. size (Mb)     dimensions

     The potential is recalculated from file :
     ./na_hcp_6.976382950545051/_ph0/na_hcp_6.976382950545051.save/charge-density.dat

     Starting wfc are   10 atomic +    3 random wfc

     Band Structure Calculation
     Davidson diagonalization with overlap

     ethr =  5.56E-11,  avg # of iterations = 22.4

     End of band structure calculation

     Number of k-points >= 100: set verbosity='high' to print the bands.

     the Fermi energy is     1.7818 ev

     Writing output data file na_hcp_6.976382950545051.save

     bravais-lattice index     =            4
     lattice parameter (alat)  =       6.9764  a.u.
     unit-cell volume          =     479.8373 (a.u.)^3
     number of atoms/cell      =            2
     number of atomic types    =            1
     kinetic-energy cut-off    =      40.0000  Ry
     charge density cut-off    =     320.0000  Ry
     convergence threshold     =      1.0E-15
     beta                      =       0.7000
     number of iterations used =            4
     Exchange-correlation      = SLA  PW   PBE  PBE ( 1  4  3  4 0 0)

     celldm(1)=    6.97638  celldm(2)=    0.00000  celldm(3)=    1.63182
     celldm(4)=    0.00000  celldm(5)=    0.00000  celldm(6)=    0.00000

     crystal axes: (cart. coord. in units of alat)
               a(1) = (  1.0000  0.0000  0.0000 )
               a(2) = ( -0.5000  0.8660  0.0000 )
               a(3) = (  0.0000  0.0000  1.6318 )

     reciprocal axes: (cart. coord. in units 2 pi/alat)
               b(1) = (  1.0000  0.5774  0.0000 )
               b(2) = (  0.0000  1.1547  0.0000 )
               b(3) = (  0.0000  0.0000  0.6128 )

     Atoms inside the unit cell:

     Cartesian axes

     site n.  atom      mass           positions (alat units)
        1     Na  22.9900   tau(    1) = (    0.00000    0.00000    0.00000  )
        2     Na  22.9900   tau(    2) = (    0.50000    0.28868    0.81591  )

     Computing dynamical matrix for
                    q = (   0.2500000   0.4330127  -0.3064062 )

      2 Sym.Ops. (no q -> -q+G )

     G cutoff =  394.5035  (   5800 G-vectors)     FFT grid: ( 40, 40, 72)
     G cutoff =  197.2518  (   2041 G-vectors)  smooth grid: ( 30, 30, 45)

     number of k points=  6912  Marzari-Vanderbilt smearing, width (Ry)=  0.0200

     PseudoPot. # 1 for Na read from file:
     ./Na_pbe_v1.uspp.F.UPF
     MD5 check sum: 76a99c7e9422403d3e93cbc85ab7bccb
     Pseudo is Ultrasoft, Zval =  9.0
     Generated by new atomic code, or converted to UPF format
     Using radial grid of  819 points,  5 beta functions with:
                l(1) =   0
                l(2) =   0
                l(3) =   1
                l(4) =   1
                l(5) =   2
     Q(r) pseudized with  8 coefficients,  rinner =    1.250   1.250   1.250
                                                       1.250   1.250

[...]

     Atomic displacements:
     There are   6 irreducible representations

[...]

     Representation     3      1 modes -A'  To be done

[...]

     Representation     6      1 modes -A''  To be done

     Alpha used in Ewald sum =   2.8000

[...]

     Representation #  6 mode #   6

     Self-consistent Calculation

[...]

      thresh= 3.241E-09 alpha_mix =  0.700 |ddv_scf|^2 =  9.732E-17

     End of self-consistent calculation

     Convergence has been achieved

     Number of q in the star =    6
     List of q in the star:
          1   0.250000000   0.433012702  -0.306406192
          2  -0.250000000   0.433012702  -0.306406192
          3   0.250000000  -0.433012702  -0.306406192
          4  -0.500000000   0.000000000  -0.306406192
          5   0.500000000   0.000000000  -0.306406192
          6  -0.250000000  -0.433012702  -0.306406192

     Diagonalizing the dynamical matrix

     q = (    0.250000000   0.433012702  -0.306406192 )

     freq (    1) =       2.079784 [THz] =      69.374133 [cm-1]
     freq (    2) =       2.087306 [THz] =      69.625022 [cm-1]
     freq (    3) =       3.131012 [THz] =     104.439320 [cm-1]
     freq (    4) =       3.139210 [THz] =     104.712778 [cm-1]
     freq (    5) =       3.887581 [THz] =     129.675752 [cm-1]
     freq (    6) =       3.895579 [THz] =     129.942519 [cm-1]

     Mode symmetry, C_s (m)     point group:

     freq (  1 -  1) =         69.4  [cm-1]   --> A'
     freq (  2 -  2) =         69.6  [cm-1]   --> A''
     freq (  3 -  3) =        104.4  [cm-1]   --> A'
     freq (  4 -  4) =        104.7  [cm-1]   --> A''
     freq (  5 -  5) =        129.7  [cm-1]   --> A'
     freq (  6 -  6) =        129.9  [cm-1]   --> A''

     General routines

     Parallel routines

     INITIALIZATION:

     DYNAMICAL MATRIX:

      General routines

   This run was terminated on:  23: 2:15  26Mar2018

   JOB DONE.
Application 30368657 resources: utime ~1363057s, stime ~12623s, Rss ~49268, inblocks ~6038967488, outblocks ~1888921648